!Keysight Technologies,P5024B,MY61400434,A.20.20.03
!Date: Monday, July 13, 2026 10:25:32
!Correction: S11(C  2-Port  ) 
!S21(C  2-Port  ) 
!S12(C  2-Port  ) 
!S22(C  2-Port  ) 
!S2P File: Measurements: S11, S21, S12, S22:
# Hz S  dB   R 50
2000000000 -32.829124 -135.9532 -1.5953541 122.80534 -1.5887341 122.82911 -30.787033 -124.70987
2001000000 -33.094402 -138.73679 -1.5927052 119.10992 -1.5872196 119.1087 -30.927814 -127.57406
2002000000 -33.321476 -143.7925 -1.5953126 115.40084 -1.588383 115.3908 -30.741438 -129.48087
2003000000 -33.483635 -147.28844 -1.5903385 111.69406 -1.5927569 111.66581 -30.959475 -131.49577
2004000000 -33.803558 -153.13828 -1.5909157 107.97765 -1.5895 107.96237 -31.067099 -135.22932
2005000000 -34.034756 -157.05208 -1.5924598 104.25835 -1.5912703 104.24013 -30.992168 -137.44408
2006000000 -34.40321 -161.95689 -1.5934535 100.52558 -1.5916412 100.52938 -30.993708 -139.58931
2007000000 -34.665062 -168.26172 -1.5970188 96.825455 -1.5909784 96.803848 -31.116226 -143.63118
2008000000 -35.057098 -172.37173 -1.5982769 93.09388 -1.5920289 93.088974 -31.200212 -145.81563
2009000000 -35.286282 -177.17906 -1.5949762 89.384483 -1.5914533 89.364273 -31.216537 -148.44318
2010000000 -35.433102 176.76439 -1.593241 85.64949 -1.5943274 85.657936 -31.47407 -151.42659
2011000000 -35.777512 171.70277 -1.5978377 81.95121 -1.5931864 81.952248 -31.585711 -154.80217
2012000000 -36.107777 165.77045 -1.5936788 78.228226 -1.5945513 78.208557 -31.771503 -157.42982
2013000000 -36.457211 161.68825 -1.6008179 74.530006 -1.5946746 74.51329 -31.927662 -160.50877
2014000000 -36.560249 156.46216 -1.5928704 70.798988 -1.5977341 70.807312 -32.052578 -163.51672
2015000000 -37.001358 152.55896 -1.595917 67.10611 -1.5948715 67.087799 -32.439705 -166.44937
2016000000 -37.156979 143.57658 -1.5995935 63.370407 -1.5959488 63.358303 -32.716568 -170.04294
2017000000 -37.723732 138.29971 -1.5944724 59.684624 -1.5974525 59.633728 -32.763783 -173.85266
2018000000 -37.508087 133.79764 -1.6019025 55.938183 -1.5970348 55.927898 -33.013718 -179.02597
2019000000 -37.936981 125.72215 -1.5958897 52.235458 -1.5958426 52.210114 -33.27647 177.69347
2020000000 -37.990528 120.82665 -1.5960281 48.512383 -1.5975456 48.5042 -33.492664 171.99916
2021000000 -38.280178 115.33025 -1.601557 44.806152 -1.5952415 44.781868 -33.9757 169.40831
2022000000 -38.389843 110.89127 -1.6018696 41.08242 -1.5964146 41.068157 -34.29467 164.4615
2023000000 -38.682369 104.19588 -1.601194 37.376877 -1.5960575 37.360874 -34.618244 159.05699
2024000000 -38.929516 99.663315 -1.5985903 33.641647 -1.5982454 33.627373 -35.244263 153.78271
2025000000 -38.231697 97.614326 -1.5985817 29.956322 -1.5989748 29.900984 -35.311234 148.12321
2026000000 -38.64703 90.143875 -1.6063151 26.206949 -1.5954165 26.21179 -35.994499 140.33179
2027000000 -38.692085 86.655014 -1.6029317 22.510483 -1.6045929 22.494259 -36.282139 135.71901
2028000000 -38.815216 84.110306 -1.6033885 18.798384 -1.6004212 18.771069 -36.789291 126.23578
2029000000 -39.013786 77.669518 -1.6005683 15.059384 -1.598775 15.068138 -37.353165 118.982
2030000000 -38.570415 75.031845 -1.6005937 11.354213 -1.5997298 11.332115 -37.485641 108.78498
2031000000 -39.064861 74.792747 -1.6003311 7.659009 -1.6026939 7.6154075 -37.422108 100.38272
2032000000 -39.096992 69.641228 -1.6063688 3.9468243 -1.5991899 3.9036765 -37.654163 92.70694
2033000000 -39.050838 66.102264 -1.6028482 0.20399036 -1.6034454 0.19409914 -37.662033 84.93528
2034000000 -39.175858 63.537601 -1.6042521 -3.5323572 -1.6028239 -3.5333045 -37.682304 75.963928
2035000000 -39.256443 64.922585 -1.6037282 -7.220304 -1.6039124 -7.2738218 -37.991493 63.774193
2036000000 -39.218639 62.181252 -1.6060959 -10.92116 -1.5989575 -10.969354 -37.429737 53.92115
2037000000 -39.176537 62.745163 -1.6030066 -14.65984 -1.6015556 -14.675562 -37.132236 44.87785
2038000000 -39.601952 61.241211 -1.6054717 -18.396261 -1.602774 -18.371836 -36.598274 38.096718
2039000000 -39.123444 61.067139 -1.6024921 -22.091679 -1.6042902 -22.106627 -36.380688 26.869295
2040000000 -39.436687 64.734703 -1.6050365 -25.783108 -1.604503 -25.832169 -35.836723 21.798574
2041000000 -39.289143 62.567066 -1.6051255 -29.51767 -1.6026673 -29.545527 -35.611271 13.104988
2042000000 -39.046844 61.96843 -1.6083428 -33.24062 -1.6038975 -33.246201 -35.097717 7.3794818
2043000000 -38.922226 64.731415 -1.6068536 -36.966278 -1.6005571 -36.973793 -34.860786 -1.3151041
2044000000 -38.959183 62.814785 -1.6072273 -40.676727 -1.6004459 -40.68771 -34.264038 -6.3041954
2045000000 -38.71978 64.211342 -1.6045102 -44.404137 -1.6035874 -44.415894 -33.899632 -14.294691
2046000000 -37.898712 63.408096 -1.6085722 -48.0994 -1.6048923 -48.123032 -33.530575 -19.240868
2047000000 -37.992374 66.760124 -1.6040045 -51.83025 -1.6065714 -51.845989 -33.185722 -24.869183
2048000000 -37.382938 66.05809 -1.611385 -55.547962 -1.6092193 -55.574593 -32.847904 -30.428774
2049000000 -37.337021 64.661766 -1.6092663 -59.264507 -1.6052837 -59.271694 -32.545536 -36.394806
2050000000 -37.108574 64.555565 -1.6082464 -62.973942 -1.6061286 -62.978107 -32.061993 -41.162178
2051000000 -36.565491 61.812515 -1.6141356 -66.681061 -1.6057569 -66.715706 -31.791367 -46.473373
2052000000 -36.111534 63.196823 -1.6116873 -70.418983 -1.6085471 -70.441826 -31.439102 -51.51543
2053000000 -35.946754 63.126842 -1.6115912 -74.133896 -1.609723 -74.125481 -31.351288 -57.298115
2054000000 -35.611065 62.386581 -1.6137516 -77.818085 -1.6076193 -77.876724 -31.083033 -61.578827
2055000000 -35.304695 62.020004 -1.6121364 -81.550949 -1.6079785 -81.55571 -30.861193 -65.999985
2056000000 -35.116138 61.510826 -1.612596 -85.280296 -1.6128411 -85.28743 -30.728134 -70.837128
2057000000 -34.815098 60.284451 -1.61141 -89.002762 -1.612461 -89.011696 -30.30542 -75.464012
2058000000 -34.342278 57.297535 -1.6143407 -92.707245 -1.6115294 -92.725853 -30.235125 -80.258057
2059000000 -34.149036 54.648998 -1.6152188 -96.428085 -1.6121173 -96.435905 -30.018763 -84.856316
2060000000 -33.670399 54.523006 -1.6129973 -100.16495 -1.6138282 -100.1399 -29.931997 -89.430183
2061000000 -33.487999 51.416664 -1.6148771 -103.88754 -1.6145114 -103.84838 -29.917145 -93.901199
2062000000 -33.222134 49.262943 -1.6191916 -107.58077 -1.6132494 -107.58289 -29.706038 -97.717865
2063000000 -33.186901 48.554756 -1.6138387 -111.2959 -1.6145377 -111.29055 -29.716679 -103.70998
2064000000 -32.986378 46.103134 -1.6146998 -114.97965 -1.6179092 -115.02798 -29.667217 -107.55511
2065000000 -32.550854 43.152203 -1.6185979 -118.72418 -1.6163011 -118.73138 -29.493132 -111.94606
2066000000 -32.431049 41.690918 -1.6167724 -122.44121 -1.6145707 -122.45121 -29.656549 -116.29747
2067000000 -32.18956 39.59087 -1.6177206 -126.14331 -1.6167033 -126.15952 -29.643515 -121.17063
2068000000 -31.849033 37.021259 -1.6192868 -129.87532 -1.6208347 -129.86562 -29.685719 -124.91505
2069000000 -31.79217 34.435802 -1.6229264 -133.54875 -1.6186249 -133.62209 -29.935083 -129.24002
2070000000 -31.589859 33.267979 -1.6162237 -137.29066 -1.617825 -137.32242 -29.876474 -133.75688
2071000000 -31.646551 30.704369 -1.6194727 -140.97742 -1.6206301 -141.0248 -29.99684 -139.42361
2072000000 -31.339329 27.755596 -1.6221895 -144.73665 -1.6190544 -144.76115 -30.205872 -142.91917
2073000000 -31.359064 25.767794 -1.6230915 -148.42406 -1.6185074 -148.44368 -30.367979 -148.06621
2074000000 -31.125771 23.356146 -1.6218274 -152.14934 -1.6214268 -152.17195 -30.497139 -151.94037
2075000000 -31.020403 22.063759 -1.621428 -155.87399 -1.619144 -155.89993 -30.686897 -157.52472
2076000000 -31.101606 18.768293 -1.6232728 -159.55405 -1.6190792 -159.57414 -30.852516 -161.56155
2077000000 -31.005785 16.897223 -1.6229831 -163.28787 -1.6229722 -163.30406 -31.222372 -166.91975
2078000000 -30.911749 14.958063 -1.6242859 -167.00397 -1.6264948 -167.0258 -31.425606 -172.70735
2079000000 -30.71505 12.038547 -1.6226803 -170.72586 -1.6233281 -170.74724 -31.684954 -177.26939
2080000000 -30.797516 9.8576326 -1.6223072 -174.45248 -1.6250066 -174.48108 -32.074223 176.23169
2081000000 -30.81496 8.4517632 -1.6247604 -178.14095 -1.6209099 -178.19833 -32.381847 170.10391
2082000000 -30.805935 5.758935 -1.6242261 178.12642 -1.6233435 178.10922 -32.701466 164.94461
2083000000 -30.904758 5.0640068 -1.6244315 174.43758 -1.6238972 174.38817 -33.146629 159.13165
2084000000 -30.862154 2.8312008 -1.620461 170.69794 -1.6214095 170.69426 -33.543755 152.31021
2085000000 -31.055773 0.9884221 -1.6240748 167.00375 -1.6213069 166.96964 -33.868645 145.74533
2086000000 -31.025171 -0.9746089 -1.6267798 163.28908 -1.6232578 163.26704 -34.085007 138.00031
2087000000 -31.120241 -1.8501668 -1.6227484 159.55266 -1.6230963 159.53065 -34.648872 131.28728
2088000000 -31.272381 -2.8229532 -1.6288761 155.84438 -1.6237701 155.82634 -35.077503 124.44191
2089000000 -31.352791 -4.7554803 -1.6250378 152.11533 -1.6263114 152.1169 -35.27203 116.25053
2090000000 -31.456066 -6.0626545 -1.6276431 148.40977 -1.6201069 148.38383 -35.640266 108.108
2091000000 -31.58968 -7.0391679 -1.6287017 144.68169 -1.6241486 144.67458 -36.025242 100.786
2092000000 -31.845901 -8.3786621 -1.6270938 140.95103 -1.6233656 140.94359 -36.176453 91.38839
2093000000 -31.927055 -8.4206448 -1.6281847 137.27704 -1.6236283 137.24146 -36.35371 81.291618
2094000000 -32.053661 -10.050039 -1.6300771 133.53342 -1.6199656 133.53659 -36.608295 73.643417
2095000000 -32.296841 -11.300001 -1.6301122 129.81213 -1.6243687 129.80885 -36.40659 62.900082
2096000000 -32.640671 -11.509163 -1.6256813 126.1004 -1.6249214 126.11115 -36.485668 52.392921
2097000000 -32.691525 -12.790042 -1.6291986 122.39054 -1.6272714 122.41919 -36.071053 44.863735
2098000000 -32.660454 -12.296736 -1.6306348 118.6492 -1.6277026 118.65055 -36.45335 37.831928
2099000000 -32.831226 -12.382552 -1.6246878 114.9583 -1.6278882 114.93894 -36.131096 28.001421
2100000000 -32.936966 -13.047533 -1.6281533 111.27431 -1.6262825 111.20667 -35.910046 21.133394
2101000000 -33.177719 -12.026776 -1.6310681 107.53239 -1.6266382 107.50539 -35.738541 12.508895
2102000000 -33.158596 -14.487762 -1.6318581 103.7944 -1.6235 103.80592 -35.632576 4.0595474
2103000000 -33.369537 -13.124488 -1.6290076 100.10059 -1.6248928 100.09413 -35.226097 -4.3230395
2104000000 -33.35548 -13.092616 -1.6292585 96.368645 -1.6307414 96.367096 -34.943539 -9.2415695
2105000000 -33.339966 -13.780304 -1.6328344 92.641441 -1.6270863 92.635521 -34.739498 -17.277176
2106000000 -33.332973 -13.213223 -1.6301132 88.964241 -1.6284674 88.920258 -34.543491 -23.479723
2107000000 -33.265907 -13.399847 -1.6327447 85.228722 -1.6296849 85.240601 -34.073574 -30.075947
2108000000 -33.262115 -13.68919 -1.6307606 81.512634 -1.6307534 81.503967 -33.826103 -37.056076
2109000000 -33.208904 -13.402345 -1.6315004 77.798836 -1.6281676 77.755356 -33.63372 -42.221416
2110000000 -33.282017 -12.798131 -1.6350646 74.074966 -1.6273614 74.075714 -33.555676 -46.94973
2111000000 -33.164936 -13.288578 -1.6362619 70.362289 -1.6290163 70.355034 -33.116531 -52.614223
2112000000 -32.949726 -15.129233 -1.6307987 66.645798 -1.6303793 66.655327 -32.604931 -58.681271
2113000000 -32.895931 -13.876617 -1.6362623 62.935986 -1.6327944 62.909084 -32.874958 -63.161041
2114000000 -32.837307 -15.427439 -1.6316022 59.224026 -1.6311258 59.201233 -32.554512 -67.870483
2115000000 -32.48328 -16.945211 -1.6366627 55.481712 -1.6358658 55.519825 -32.282536 -71.517166
2116000000 -32.419212 -17.109564 -1.6354437 51.784252 -1.6345844 51.759251 -32.189011 -77.525627
2117000000 -32.261837 -17.715424 -1.6354301 48.062084 -1.6318072 48.086159 -32.25568 -82.441406
2118000000 -32.374733 -20.056454 -1.6348809 44.326363 -1.6361318 44.347454 -32.069275 -86.700455
2119000000 -31.988235 -20.774387 -1.6363748 40.663456 -1.6326278 40.627388 -32.090454 -89.67775
2120000000 -32.04089 -22.64188 -1.6339214 36.915932 -1.6343355 36.903069 -31.976049 -94.275597
2121000000 -31.91239 -23.927114 -1.637899 33.202709 -1.6336737 33.170475 -32.000126 -99.45108
2122000000 -31.638868 -25.291643 -1.6405605 29.492655 -1.6358367 29.464542 -31.949711 -102.66805
2123000000 -31.767067 -27.333973 -1.6368865 25.775703 -1.6359733 25.765038 -32.052601 -107.09558
2124000000 -31.572342 -29.658754 -1.6409967 22.040062 -1.6335206 22.027534 -32.088974 -110.77607
2125000000 -31.424713 -30.378841 -1.6366819 18.358166 -1.636694 18.308903 -32.129742 -115.46027
2126000000 -31.587473 -32.551991 -1.638589 14.652694 -1.635343 14.6041 -32.417908 -118.85564
2127000000 -31.281704 -33.974941 -1.6431774 10.880952 -1.6373352 10.91476 -32.351292 -123.11415
2128000000 -31.185677 -35.642273 -1.6416732 7.1619315 -1.6417413 7.157341 -32.510483 -126.02081
2129000000 -31.198586 -37.623772 -1.6413627 3.4594014 -1.6367933 3.4642715 -32.816048 -130.11855
2130000000 -31.231834 -39.865955 -1.6394291 -0.24520294 -1.6375163 -0.26362491 -33.006088 -133.42293
2131000000 -31.419228 -42.02166 -1.6414062 -3.9508755 -1.6368321 -3.9543877 -33.272923 -136.20987
2132000000 -31.153347 -44.566292 -1.6413245 -7.656281 -1.6360106 -7.7036648 -33.451084 -141.66678
2133000000 -31.28652 -46.882217 -1.6436834 -11.390998 -1.6384822 -11.368939 -33.814735 -143.67844
2134000000 -31.350807 -47.936787 -1.6403562 -15.082125 -1.6408645 -15.11803 -33.897007 -147.41423
2135000000 -31.462864 -50.46661 -1.643075 -18.813951 -1.6384139 -18.833115 -34.348171 -151.9395
2136000000 -31.458344 -52.959827 -1.6430807 -22.513962 -1.6415377 -22.528795 -34.646824 -155.23836
2137000000 -31.471231 -54.954247 -1.6401862 -26.261028 -1.6407391 -26.261986 -35.150829 -157.39999
2138000000 -31.791227 -57.960686 -1.64228 -29.952597 -1.6429741 -29.959366 -35.451698 -161.63329
2139000000 -31.700062 -58.327431 -1.6430353 -33.66843 -1.6413975 -33.685135 -35.876873 -163.179
2140000000 -31.991789 -61.824368 -1.6430712 -37.386345 -1.6427115 -37.387264 -36.503647 -168.12711
2141000000 -32.518475 -63.323601 -1.6440806 -41.115662 -1.6454345 -41.081566 -36.743828 -169.77727
2142000000 -32.582756 -65.875221 -1.6444916 -44.834267 -1.6428272 -44.856457 -37.062187 -173.51338
2143000000 -32.76453 -68.705803 -1.6432639 -48.56768 -1.6414118 -48.561337 -37.663906 -176.37813
2144000000 -32.998726 -70.797852 -1.6438664 -52.238472 -1.6446443 -52.265293 -38.315945 -179.47958
2145000000 -33.316898 -73.484673 -1.6445324 -55.974304 -1.6426952 -55.988182 -38.490971 179.51868
2146000000 -33.639885 -74.847389 -1.6474025 -59.669071 -1.6423488 -59.734123 -39.806625 176.6808
2147000000 -33.945881 -77.537735 -1.6428845 -63.399147 -1.643984 -63.424721 -39.974682 170.96448
2148000000 -34.084579 -79.427429 -1.645988 -67.117599 -1.6436446 -67.127533 -41.343216 170.4071
2149000000 -34.743656 -83.932686 -1.6459121 -70.828896 -1.6430795 -70.857994 -41.675083 167.15753
2150000000 -35.089481 -82.533363 -1.6479257 -74.551758 -1.6458772 -74.576874 -41.681332 167.01259
2151000000 -35.355236 -86.066582 -1.6472338 -78.265114 -1.6471828 -78.276108 -43.060497 162.63736
2152000000 -35.877335 -88.702782 -1.6478596 -81.983284 -1.6461374 -81.991005 -43.960213 161.21535
2153000000 -36.314297 -90.615578 -1.6487135 -85.706169 -1.6454848 -85.741112 -44.958992 158.82774
2154000000 -37.052368 -90.666779 -1.6512475 -89.404495 -1.6451138 -89.425179 -44.988327 160.97617
2155000000 -37.604221 -90.809372 -1.6492947 -93.134743 -1.64737 -93.141075 -46.793507 159.19095
2156000000 -37.898754 -94.410439 -1.6463647 -96.853073 -1.6454843 -96.873131 -47.385956 157.24812
2157000000 -38.93618 -95.888809 -1.6492232 -100.56471 -1.6469637 -100.56296 -48.949844 160.01776
2158000000 -39.257347 -97.501358 -1.6510892 -104.26408 -1.6493189 -104.32071 -50.970242 159.99866
2159000000 -39.858154 -96.491837 -1.6470681 -108.01826 -1.6472418 -108.0137 -51.512825 153.45523
2160000000 -40.342415 -98.545853 -1.6515856 -111.71003 -1.6454746 -111.72453 -51.590721 166.67134
2161000000 -41.026848 -97.404297 -1.6496543 -115.44262 -1.6471786 -115.44895 -52.929646 167.04778
2162000000 -42.295578 -95.651031 -1.6522183 -119.14586 -1.6527611 -119.1852 -56.7369 152.02243
2163000000 -42.177399 -97.095291 -1.6542312 -122.87193 -1.6484418 -122.86826 -57.349747 -171.0688
2164000000 -42.971146 -96.827499 -1.6507576 -126.58465 -1.651193 -126.60213 -58.968304 167.5405
2165000000 -43.930656 -94.535492 -1.6523683 -130.30099 -1.6504616 -130.33002 -64.727463 149.37062
2166000000 -44.286243 -95.559685 -1.6492549 -134.0085 -1.6520544 -134.03445 -61.381397 -150.23503
2167000000 -44.40266 -92.28437 -1.6520555 -137.72585 -1.6534185 -137.73116 -64.684128 -129.10742
2168000000 -45.280983 -83.868294 -1.6574509 -141.46739 -1.6479518 -141.47551 -63.942875 -72.674904
2169000000 -44.663471 -86.210213 -1.6567627 -145.16777 -1.6533421 -145.18311 -61.327545 -68.0662
2170000000 -45.284237 -81.474594 -1.6556151 -148.88646 -1.6523005 -148.90477 -57.048206 -57.944103
2171000000 -45.332294 -80.769554 -1.655828 -152.59735 -1.6510015 -152.62624 -58.419849 -61.540447
2172000000 -45.510666 -78.276337 -1.6550977 -156.30736 -1.6505611 -156.32193 -55.576794 -32.880672
2173000000 -45.688839 -78.262978 -1.6526562 -160.01897 -1.6540331 -160.04616 -54.580688 -27.590609
2174000000 -45.332916 -78.471008 -1.6593133 -163.74059 -1.6548469 -163.76079 -49.886784 -36.361073
2175000000 -44.998962 -73.993469 -1.6590701 -167.46344 -1.6514826 -167.48206 -49.944092 -35.053043
2176000000 -45.027046 -74.686386 -1.6521748 -171.17302 -1.6536072 -171.19394 -48.462059 -28.519341
2177000000 -45.285786 -74.534096 -1.6595731 -174.88904 -1.6532508 -174.90408 -47.177273 -40.799809
2178000000 -44.478031 -77.7677 -1.655304 -178.61034 -1.6565429 -178.62997 -46.173374 -34.358688
2179000000 -44.561714 -77.429779 -1.6552005 177.69237 -1.6563064 177.6628 -45.54282 -40.073494
2180000000 -44.730274 -77.001808 -1.6601808 173.96069 -1.6558774 173.94406 -44.416367 -40.47113
2181000000 -44.565346 -74.17511 -1.6585524 170.25377 -1.6536853 170.21376 -44.305832 -46.262138
2182000000 -44.243542 -81.118309 -1.6597313 166.51834 -1.6581706 166.49591 -42.974167 -40.452713
2183000000 -44.1973 -84.494301 -1.6599976 162.82649 -1.6585422 162.78087 -42.072201 -44.314137
2184000000 -44.585155 -83.71875 -1.6628803 159.09143 -1.6564728 159.07649 -41.438732 -50.061905
2185000000 -44.69286 -84.977257 -1.6603777 155.37584 -1.6570569 155.37302 -40.987068 -53.175831
2186000000 -44.699726 -89.155296 -1.6624787 151.65482 -1.6604191 151.64944 -40.053261 -54.825935
2187000000 -44.834923 -96.630066 -1.6597419 147.92207 -1.6597229 147.91679 -39.579826 -54.078747
2188000000 -45.197998 -97.655495 -1.6642103 144.24893 -1.6554165 144.20148 -39.136612 -58.657944
2189000000 -44.796391 -106.64451 -1.6626881 140.50174 -1.6601334 140.47685 -38.517151 -59.537113
2190000000 -45.698708 -109.54646 -1.6613567 136.78601 -1.6594908 136.78261 -38.150372 -63.900627
2191000000 -46.757893 -113.51469 -1.6619207 133.06227 -1.660509 133.05853 -37.588287 -67.386345
2192000000 -46.515118 -123.716 -1.6625493 129.32843 -1.6581565 129.34328 -37.358475 -70.944351
2193000000 -47.265804 -130.85966 -1.6621454 125.6416 -1.6606684 125.60461 -37.054684 -74.3507
2194000000 -47.838295 -132.79889 -1.6614076 121.94437 -1.6613529 121.90132 -36.723232 -79.645798
2195000000 -48.134182 -148.88283 -1.6620793 118.20316 -1.661482 118.20023 -36.304932 -80.781975
2196000000 -49.26022 -155.347 -1.6621515 114.49335 -1.6608403 114.47028 -35.932213 -85.063713
2197000000 -48.104191 -168.39125 -1.6637045 110.7608 -1.6654097 110.76461 -35.80402 -89.64119
2198000000 -49.09317 179.23489 -1.6656368 107.07162 -1.6624782 107.03934 -35.615814 -93.061043
2199000000 -47.466869 164.50247 -1.6658735 103.31514 -1.663291 103.33057 -35.256733 -96.565437
2200000000 -47.198769 150.52312 -1.6666911 99.624634 -1.6630059 99.602539 -35.128559 -101.78445
2201000000 -45.941715 141.6871 -1.665134 95.88308 -1.6673282 95.913635 -35.177956 -105.83167
2202000000 -45.821323 136.48199 -1.667443 92.183258 -1.6644518 92.170982 -34.885101 -110.23156
2203000000 -44.53611 125.178 -1.6691451 88.445618 -1.6668643 88.468727 -34.791519 -113.97377
2204000000 -44.187016 120.08191 -1.671121 84.771767 -1.6672667 84.741409 -34.745106 -118.35986
2205000000 -43.031742 110.16793 -1.667418 81.048203 -1.6673439 81.017624 -34.574642 -121.90453
2206000000 -42.734329 110.58908 -1.6728971 77.299507 -1.6695718 77.326408 -34.365578 -128.30113
2207000000 -41.783939 103.01089 -1.6728141 73.599823 -1.6665083 73.604561 -34.298092 -132.23895
2208000000 -41.137714 99.392578 -1.6733096 69.922432 -1.670012 69.878944 -34.468426 -136.35721
2209000000 -40.490189 97.751122 -1.6730756 66.154823 -1.6678182 66.180214 -34.344501 -142.17126
2210000000 -40.085835 96.527733 -1.6703638 62.476589 -1.6685039 62.445354 -34.153522 -147.16354
2211000000 -39.371593 89.953773 -1.6734333 58.756088 -1.6694132 58.724091 -34.311512 -152.50545
2212000000 -38.899769 85.911041 -1.6730098 55.028168 -1.670717 55.020992 -34.418106 -156.97177
2213000000 -38.617088 82.26059 -1.6756734 51.305386 -1.6683286 51.319897 -34.086506 -161.58055
2214000000 -38.368549 78.6856 -1.6717315 47.596912 -1.6698713 47.583775 -34.368645 -164.92078
2215000000 -38.084476 77.405403 -1.6729264 43.889694 -1.6702299 43.896095 -34.362381 -171.38712
2216000000 -37.421013 74.116547 -1.6731673 40.161362 -1.6721442 40.156387 -34.628746 -177.30263
2217000000 -37.396729 69.871338 -1.674644 36.467987 -1.6707391 36.449562 -34.60133 178.77675
2218000000 -37.168365 68.487022 -1.6734755 32.73177 -1.6727815 32.72366 -34.378353 172.96423
2219000000 -36.905918 63.566666 -1.6729276 29.025257 -1.6729146 28.986382 -34.76096 166.8252
2220000000 -36.899887 62.015408 -1.6796674 25.30706 -1.6705779 25.296547 -34.974411 161.88382
2221000000 -36.76255 59.902206 -1.6765941 21.621264 -1.676722 21.577398 -34.729885 155.03014
2222000000 -36.195164 57.50964 -1.67518 17.879026 -1.675483 17.847822 -35.425102 149.74428
2223000000 -36.08989 55.310627 -1.6755363 14.165941 -1.6736487 14.12091 -35.349007 143.14702
2224000000 -36.062927 51.741039 -1.6810693 10.444779 -1.6739326 10.431087 -35.771687 134.51514
2225000000 -35.950806 50.84547 -1.677592 6.7409978 -1.6742253 6.7203579 -35.769161 129.35799
2226000000 -35.891109 47.458321 -1.6777966 3.0237901 -1.6751621 2.9892173 -35.839893 121.0724
2227000000 -35.699482 45.350723 -1.6786377 -0.6807397 -1.6775924 -0.71666253 -36.251846 115.29337
2228000000 -35.680302 41.781075 -1.6771612 -4.4022336 -1.6784415 -4.4369168 -36.04052 106.5583
2229000000 -35.840015 40.986996 -1.6805614 -8.1333733 -1.6770443 -8.1355171 -36.269699 99.286713
2230000000 -35.650192 37.906223 -1.6818942 -11.828617 -1.6757435 -11.854299 -36.508152 92.231018
2231000000 -35.578545 36.119694 -1.6792878 -15.544646 -1.6766969 -15.560122 -36.206398 84.079697
2232000000 -35.702374 34.726917 -1.6828361 -19.269726 -1.6780243 -19.279354 -36.479191 74.076294
2233000000 -35.662479 32.377079 -1.6823224 -23.003933 -1.6766962 -22.98295 -36.239899 67.129166
2234000000 -35.451149 29.933023 -1.6779714 -26.710609 -1.6759026 -26.739578 -36.262959 59.372402
2235000000 -35.565907 28.846085 -1.6816456 -30.424095 -1.6763877 -30.448286 -36.337219 50.305149
2236000000 -35.563366 29.338518 -1.6819788 -34.135899 -1.6822653 -34.146778 -35.965191 43.825058
2237000000 -35.569107 26.07239 -1.6820235 -37.873058 -1.6804582 -37.852398 -35.666935 35.758217
2238000000 -35.826962 27.456768 -1.6818428 -41.567928 -1.6816453 -41.568417 -35.498444 29.16264
2239000000 -35.724842 24.209749 -1.6819708 -45.272537 -1.6791945 -45.299084 -35.096878 20.828991
2240000000 -35.790482 24.229433 -1.6816994 -48.999447 -1.6793636 -49.016407 -34.903488 12.112019
2241000000 -35.793186 23.218742 -1.6831905 -52.706944 -1.682223 -52.717422 -34.664165 6.4009461
2242000000 -35.759636 22.916985 -1.6821913 -56.450417 -1.6796448 -56.461246 -34.67865 -1.3636237
2243000000 -35.475853 23.342501 -1.6825943 -60.120747 -1.6850806 -60.182804 -34.319492 -5.728972
2244000000 -35.606117 20.472393 -1.6837358 -63.85561 -1.6799867 -63.887104 -34.003635 -11.680611
2245000000 -35.554409 22.112265 -1.6867439 -67.600365 -1.6844825 -67.573708 -33.881062 -18.932993
2246000000 -35.716286 20.151274 -1.6833663 -71.297165 -1.6847003 -71.314438 -33.509842 -25.906815
2247000000 -35.424248 22.968575 -1.6872325 -75.010391 -1.6869274 -75.053307 -33.35524 -30.393629
2248000000 -35.690712 22.972128 -1.6870195 -78.737991 -1.6807551 -78.776756 -33.198936 -37.210236
2249000000 -35.433628 21.838005 -1.6871294 -82.456558 -1.6845744 -82.457756 -33.093166 -41.886463
2250000000 -35.476448 21.570866 -1.6872283 -86.161964 -1.6821344 -86.168701 -32.920666 -46.992584
2251000000 -35.143406 22.225088 -1.6870584 -89.884995 -1.686571 -89.892143 -32.782284 -52.354
2252000000 -35.123653 20.860044 -1.6895022 -93.569298 -1.6851814 -93.639259 -32.363483 -58.74538
2253000000 -35.026981 22.462904 -1.6857466 -97.316757 -1.6884207 -97.325462 -32.435818 -65.098503
2254000000 -34.961075 21.757132 -1.686366 -101.02601 -1.6862179 -101.04231 -32.500027 -69.869308
2255000000 -34.841671 21.813364 -1.6942381 -104.74973 -1.684595 -104.77044 -32.408367 -75.044983
2256000000 -34.362431 21.856483 -1.6908329 -108.47664 -1.6851928 -108.47488 -32.440578 -80.576752
2257000000 -34.204472 22.40435 -1.6876383 -112.14037 -1.6849612 -112.20551 -32.345867 -85.613472
2258000000 -34.132183 19.686823 -1.6903621 -115.86813 -1.6899427 -115.9039 -32.18951 -91.645836
2259000000 -33.915318 20.672928 -1.6932031 -119.60773 -1.6842722 -119.63193 -32.354473 -97.417168
2260000000 -33.769455 20.140209 -1.6930441 -123.33774 -1.6887147 -123.3546 -32.254395 -101.63276
2261000000 -33.629387 19.829453 -1.6911545 -127.02676 -1.6896008 -127.05119 -32.287937 -107.81365
2262000000 -33.564724 19.789185 -1.6912634 -130.74815 -1.6877369 -130.77419 -32.405602 -113.12031
2263000000 -33.305038 17.119202 -1.6940148 -134.46635 -1.6924937 -134.48746 -32.349628 -119.01467
2264000000 -33.200981 17.883108 -1.6961591 -138.20375 -1.6890424 -138.20721 -32.45266 -125.2476
2265000000 -33.161114 17.092436 -1.6918014 -141.90546 -1.6930732 -141.91418 -32.500366 -130.57632
2266000000 -32.93264 16.261879 -1.6958998 -145.61679 -1.6916914 -145.61858 -32.563423 -136.01768
2267000000 -32.674206 14.40148 -1.6938909 -149.32927 -1.6967874 -149.35619 -32.682732 -140.03212
2268000000 -32.734322 13.383625 -1.6969618 -153.03777 -1.6920973 -153.05223 -32.674999 -147.13216
2269000000 -32.508804 11.757831 -1.6915069 -156.74071 -1.6947073 -156.79567 -33.051758 -152.3817
2270000000 -32.271469 10.939193 -1.6929477 -160.48528 -1.6925697 -160.49519 -32.928909 -158.52885
2271000000 -32.297302 9.7760725 -1.6941386 -164.2074 -1.6954771 -164.19466 -33.040356 -164.79195
2272000000 -32.183777 7.2989364 -1.695717 -167.89899 -1.6972679 -167.9326 -33.344482 -170.90265
2273000000 -32.115582 6.0024104 -1.697059 -171.59015 -1.6977925 -171.64665 -33.365513 -175.83032
2274000000 -32.102337 4.8926959 -1.6956902 -175.33421 -1.6970257 -175.3774 -33.726414 177.42619
2275000000 -32.037659 2.302439 -1.6954817 -179.03676 -1.6927735 -179.06961 -33.889805 172.84123
2276000000 -31.820631 0.64151371 -1.6975974 177.23128 -1.6945019 177.21086 -33.983978 166.31181
2277000000 -32.020615 0.10312173 -1.6975905 173.52332 -1.6938778 173.49503 -34.401825 159.54538
2278000000 -31.911682 -1.4339633 -1.7020942 169.78629 -1.6943295 169.77652 -34.526981 153.0847
2279000000 -31.734884 -3.8960958 -1.6983964 166.08324 -1.692955 166.04478 -34.573631 145.92102
2280000000 -31.780567 -4.9005508 -1.6987926 162.36546 -1.6961408 162.34459 -34.765934 139.07457
2281000000 -31.719372 -7.2202177 -1.697367 158.6698 -1.6970218 158.64384 -35.090225 133.97832
2282000000 -31.796175 -8.6451607 -1.6992351 154.92508 -1.7007823 154.90797 -35.298843 124.06928
2283000000 -31.798937 -10.767145 -1.6982617 151.19891 -1.7007662 151.20374 -35.527531 116.72576
2284000000 -31.812101 -11.542915 -1.7008333 147.52315 -1.7011929 147.50352 -35.669769 110.25022
2285000000 -31.994465 -12.8196 -1.7060546 143.77213 -1.6970594 143.74982 -35.90139 101.46078
2286000000 -31.74563 -15.12563 -1.6975124 140.08005 -1.6974466 140.03522 -35.764828 95.42823
2287000000 -31.953833 -16.012045 -1.699237 136.37558 -1.7026891 136.34546 -36.180069 85.789917
2288000000 -31.987776 -17.254993 -1.7012254 132.64127 -1.7024431 132.62814 -35.876362 79.114914
2289000000 -31.952625 -19.626863 -1.6997719 128.93422 -1.7005147 128.9185 -35.96043 69.559982
2290000000 -31.893888 -20.884602 -1.7006261 125.22506 -1.6998312 125.2158 -35.801903 62.463268
2291000000 -32.16103 -22.380598 -1.699845 121.49641 -1.7004067 121.50292 -35.846901 53.207436
2292000000 -32.19136 -22.338005 -1.7040739 117.78735 -1.7021565 117.7473 -35.72831 47.400719
2293000000 -32.184048 -23.758854 -1.7050347 114.04502 -1.7001134 114.07563 -35.42535 39.831856
2294000000 -32.160858 -25.269211 -1.7066113 110.33195 -1.7013936 110.36066 -35.310802 32.911713
2295000000 -32.201809 -26.080196 -1.7035183 106.6544 -1.7001635 106.64559 -35.317993 24.857367
2296000000 -32.267891 -25.910629 -1.7029408 102.90831 -1.7042452 102.91297 -35.134438 20.104296
2297000000 -32.101696 -26.409714 -1.7082455 99.241425 -1.7028764 99.168221 -35.0373 12.179759
2298000000 -32.319256 -28.686289 -1.7011802 95.503342 -1.7017796 95.498024 -34.659912 4.4543552
2299000000 -32.313 -28.980404 -1.704648 91.78299 -1.701328 91.762787 -34.587666 -0.62429309
2300000000 -32.420074 -29.458742 -1.7083269 88.069016 -1.7049781 88.050316 -34.27372 -6.2378225
2301000000 -32.643993 -30.17564 -1.7073189 84.351334 -1.6990805 84.320808 -34.313004 -12.538081
2302000000 -32.460999 -31.443815 -1.7023888 80.631271 -1.7024596 80.616165 -34.104527 -17.644655
2303000000 -32.43457 -30.775661 -1.7094502 76.921959 -1.7054925 76.897598 -33.938793 -23.259769
2304000000 -32.526489 -32.581669 -1.7057769 73.202332 -1.7059169 73.172729 -33.755795 -29.539244
2305000000 -32.565533 -32.895199 -1.7048482 69.476624 -1.7017467 69.450661 -33.852146 -34.035553
2306000000 -32.509499 -33.107887 -1.7065864 65.744308 -1.7047423 65.728729 -33.642986 -38.302326
2307000000 -32.673737 -32.870773 -1.7081665 62.039879 -1.7001616 62.031101 -33.563496 -44.277
2308000000 -32.546574 -33.484325 -1.704402 58.325069 -1.7008233 58.290611 -33.588093 -49.382397
2309000000 -32.53466 -34.428226 -1.7072809 54.603992 -1.7061213 54.598183 -33.192085 -53.901615
2310000000 -32.526855 -35.045258 -1.7105455 50.887234 -1.7052311 50.898582 -33.181393 -58.525543
2311000000 -32.365906 -35.811581 -1.7108998 47.175995 -1.7048861 47.133263 -33.336632 -63.34845
2312000000 -32.408249 -37.530952 -1.7104139 43.454014 -1.7061228 43.441265 -33.116528 -68.176979
2313000000 -32.388592 -38.041172 -1.7074777 39.755798 -1.706272 39.72229 -33.187416 -72.871765
2314000000 -32.380856 -39.82671 -1.7111739 36.01889 -1.7071375 36.011581 -33.449184 -75.590851
2315000000 -32.325382 -40.240501 -1.7092803 32.280643 -1.7102673 32.300911 -33.390228 -81.997955
2316000000 -32.216309 -41.505878 -1.7141103 28.595758 -1.7106718 28.595816 -33.484875 -85.345352
2317000000 -32.338863 -42.813702 -1.70846 24.864693 -1.7059414 24.844059 -33.351479 -89.607864
2318000000 -32.251675 -44.400017 -1.7126213 21.179277 -1.7109298 21.168945 -33.369148 -93.85717
2319000000 -32.102577 -46.646091 -1.710027 17.426952 -1.7105843 17.429214 -33.38166 -99.126717
2320000000 -32.287621 -46.512402 -1.7100612 13.743979 -1.7112541 13.716534 -33.750141 -103.5152
2321000000 -32.217129 -49.433044 -1.7131578 10.032918 -1.7087749 9.9768839 -33.731045 -106.93777
2322000000 -32.18597 -52.394314 -1.712437 6.2825265 -1.7078785 6.2772269 -34.03915 -110.34164
2323000000 -32.298836 -54.404587 -1.712202 2.5748951 -1.7108725 2.5929835 -33.853001 -113.75455
2324000000 -32.191479 -55.023979 -1.7150861 -1.139038 -1.7102044 -1.146034 -34.017338 -119.30318
2325000000 -32.245071 -58.160809 -1.7153246 -4.8345718 -1.7134231 -4.8646531 -34.233158 -121.0587
2326000000 -32.241238 -59.823135 -1.7141963 -8.5697947 -1.7125057 -8.5659847 -34.191906 -124.54018
2327000000 -32.313911 -61.042393 -1.7140815 -12.285031 -1.7112519 -12.304448 -34.510757 -129.18492
2328000000 -32.357037 -64.402916 -1.7137315 -16.009953 -1.7141572 -16.022627 -34.422123 -131.40273
2329000000 -32.395203 -67.82177 -1.7168834 -19.701576 -1.7144234 -19.744438 -34.659878 -135.36339
2330000000 -32.680019 -70.131355 -1.7168204 -23.429436 -1.7170641 -23.460472 -35.069809 -138.79388
2331000000 -32.569004 -72.294495 -1.7150201 -27.126955 -1.7134008 -27.171808 -35.264809 -142.21686
2332000000 -32.390358 -73.55703 -1.71584 -30.855118 -1.7157689 -30.887844 -35.519073 -145.62781
2333000000 -32.67223 -77.848473 -1.7148675 -34.560173 -1.7137281 -34.585312 -35.458035 -147.07861
2334000000 -32.962208 -79.976822 -1.7175031 -38.294594 -1.7160318 -38.317326 -35.718075 -151.15698
2335000000 -32.832363 -81.306206 -1.7185127 -41.991623 -1.7142036 -41.993889 -35.580933 -155.049
2336000000 -33.038113 -85.768372 -1.7220478 -45.717823 -1.7122182 -45.734486 -36.232216 -157.41476
2337000000 -33.244972 -88.101036 -1.7171279 -49.454754 -1.7173194 -49.464939 -36.533184 -159.72884
2338000000 -33.373981 -90.97406 -1.7181259 -53.163063 -1.7134404 -53.178791 -36.907047 -162.26657
2339000000 -33.329109 -93.718048 -1.7206423 -56.850388 -1.7128782 -56.886177 -36.679012 -167.01485
2340000000 -33.581936 -95.572632 -1.7186515 -60.571407 -1.7147933 -60.61013 -37.059341 -168.24303
2341000000 -33.747135 -99.350693 -1.7197275 -64.30056 -1.7192187 -64.318298 -37.043308 -171.4005
2342000000 -34.020191 -102.72066 -1.7225813 -68.022591 -1.7184458 -68.024178 -37.656246 -174.47655
2343000000 -34.170368 -105.71207 -1.715045 -71.732536 -1.7225251 -71.734367 -37.681545 -177.38213
2344000000 -34.259983 -108.67947 -1.7216696 -75.442719 -1.7206104 -75.446724 -37.993992 177.61154
2345000000 -34.555756 -112.07571 -1.7205145 -79.179344 -1.7189561 -79.20414 -37.731888 176.83554
2346000000 -34.637115 -115.50842 -1.7181113 -82.8899 -1.7192206 -82.893494 -38.503445 173.36519
2347000000 -35.028751 -119.6638 -1.7235485 -86.593399 -1.7178725 -86.614357 -38.268551 171.12875
2348000000 -35.378765 -122.05394 -1.7240013 -90.293709 -1.7227037 -90.363861 -38.339573 163.18375
2349000000 -35.588135 -124.38063 -1.7213225 -94.046547 -1.7214687 -94.032341 -38.78413 162.50537
2350000000 -36.139324 -127.91921 -1.7259371 -97.743423 -1.7172397 -97.76445 -39.127117 158.29047
2351000000 -36.354965 -131.44846 -1.7268131 -101.46299 -1.7219785 -101.46901 -39.021343 153.89703
2352000000 -36.529594 -136.7666 -1.7217792 -105.16281 -1.7235378 -105.18875 -39.211674 150.60777
2353000000 -36.800835 -139.94609 -1.7252593 -108.91273 -1.7202711 -108.9295 -38.870186 143.91344
2354000000 -36.994221 -142.33484 -1.7241249 -112.61709 -1.721366 -112.61862 -39.063129 140.52473
2355000000 -37.481079 -148.63974 -1.7267801 -116.33039 -1.7248719 -116.36182 -38.993114 134.33704
2356000000 -37.609787 -151.2182 -1.7255197 -120.04337 -1.7262831 -120.08377 -39.212601 131.29906
2357000000 -38.357731 -160.26192 -1.7236345 -123.76613 -1.7248149 -123.77311 -38.872261 125.30493
2358000000 -38.826126 -163.78319 -1.7241526 -127.46879 -1.7224966 -127.49358 -38.815197 123.31859
2359000000 -39.207569 -167.19492 -1.7249628 -131.19974 -1.7255836 -131.19464 -38.596329 115.23797
2360000000 -38.972057 -171.37956 -1.7271776 -134.91167 -1.7252058 -134.9129 -38.78244 111.16206
2361000000 -39.680439 -179.10991 -1.726199 -138.63374 -1.7257762 -138.6412 -38.338989 103.10271
2362000000 -39.767662 177.7975 -1.7289002 -142.3351 -1.7252589 -142.33443 -38.012455 99.379059
2363000000 -40.32925 168.00964 -1.7260157 -146.05525 -1.7240044 -146.09035 -37.833881 94.839714
2364000000 -40.375828 162.45404 -1.7265296 -149.79477 -1.725227 -149.79822 -37.753475 90.351898
2365000000 -40.501949 157.24823 -1.7278084 -153.49814 -1.7255535 -153.49559 -37.486069 84.477219
2366000000 -40.505932 152.88556 -1.72882 -157.20744 -1.7243305 -157.20462 -37.150833 79.209564
2367000000 -40.958927 146.11346 -1.7310306 -160.94463 -1.7255654 -160.91246 -36.970242 74.772865
2368000000 -40.888794 141.31609 -1.7291018 -164.62381 -1.7280134 -164.66515 -36.783249 67.942574
2369000000 -40.803673 135.33768 -1.7287017 -168.3446 -1.7289425 -168.4015 -36.664268 64.434311
2370000000 -40.851765 128.61642 -1.7306296 -172.07678 -1.727547 -172.08733 -36.39262 59.230801
2371000000 -40.468285 123.88825 -1.7327513 -175.79089 -1.7297956 -175.81355 -36.249416 52.657551
2372000000 -40.431664 120.4161 -1.7307082 -179.49873 -1.7340187 -179.50862 -36.067543 48.549168
2373000000 -40.152756 116.22622 -1.7304113 176.78047 -1.7310233 176.75493 -35.889759 42.711166
2374000000 -40.1287 108.41201 -1.7315042 173.06998 -1.7309955 173.06813 -35.383476 36.232311
2375000000 -39.979015 108.40463 -1.7336973 169.37654 -1.7273521 169.30109 -35.045155 32.148972
2376000000 -39.572731 107.15357 -1.7358691 165.63345 -1.7311186 165.61862 -34.90884 26.741327
2377000000 -39.686813 101.75138 -1.7350688 161.91731 -1.7323006 161.92146 -34.924118 21.313759
2378000000 -39.360607 99.157288 -1.731952 158.18549 -1.7327176 158.21259 -34.798164 15.123145
2379000000 -39.250698 96.639824 -1.7344772 154.50063 -1.7348199 154.46478 -34.397305 9.0633669
2380000000 -39.061565 93.050026 -1.7325144 150.78328 -1.7330344 150.74216 -34.300453 5.3655434
2381000000 -38.634666 90.513649 -1.7352268 147.08093 -1.7316607 147.04855 -34.06282 -0.83044386
2382000000 -38.574902 89.663284 -1.7335383 143.31682 -1.7345189 143.34442 -33.8349 -6.8581791
2383000000 -39.062111 85.638939 -1.7385098 139.6519 -1.7369525 139.58824 -33.592159 -11.031897
2384000000 -38.154076 85.358894 -1.7353483 135.90541 -1.7363837 135.90543 -33.485836 -16.869967
2385000000 -38.268406 83.990097 -1.7341831 132.19926 -1.7371464 132.15225 -33.151234 -21.92136
2386000000 -37.815296 82.275368 -1.7424664 128.46292 -1.7328901 128.45639 -33.169003 -26.722567
2387000000 -37.897507 81.308098 -1.7383958 124.77434 -1.7344587 124.75386 -32.639824 -32.630039
2388000000 -37.717342 78.10994 -1.737215 121.03609 -1.7392039 121.0403 -32.525478 -38.261906
2389000000 -37.6973 76.62014 -1.7370471 117.34007 -1.7354282 117.27932 -32.460529 -41.61655
2390000000 -37.205486 75.706909 -1.7399106 113.60193 -1.7381463 113.61557 -32.09972 -47.729553
2391000000 -36.944752 75.120659 -1.7357517 109.86411 -1.7373093 109.8946 -31.927624 -52.288288
2392000000 -36.865433 73.470207 -1.7401274 106.18325 -1.7363023 106.16879 -31.892519 -57.778458
2393000000 -36.491283 71.592583 -1.7400254 102.45689 -1.7336247 102.44201 -31.762474 -63.288036
2394000000 -36.494061 70.596085 -1.740386 98.733391 -1.7420028 98.760277 -31.516668 -67.415337
2395000000 -35.992126 68.424904 -1.7447343 95.011009 -1.7422653 95.046364 -31.606913 -72.680084
2396000000 -36.045975 67.064194 -1.7427962 91.325951 -1.7391344 91.277496 -31.315699 -77.768501
2397000000 -35.526882 65.287773 -1.746708 87.593063 -1.7395887 87.582687 -31.228312 -83.519043
2398000000 -35.414162 63.780094 -1.7436001 83.868942 -1.7390532 83.850151 -31.289024 -87.44339
2399000000 -35.068043 60.665203 -1.7454891 80.142326 -1.7394639 80.151237 -31.220318 -92.639214
2400000000 -34.885509 59.245628 -1.7493181 76.463188 -1.7447126 76.434334 -31.172766 -97.573029
2401000000 -34.668999 58.527939 -1.745693 72.712349 -1.7421664 72.713638 -31.218693 -102.86634
2402000000 -34.342049 56.17194 -1.7458687 69.028473 -1.7406032 68.996964 -31.249151 -107.54118
2403000000 -34.085308 53.875748 -1.7436628 65.313187 -1.7473761 65.288437 -31.270214 -111.79546
2404000000 -34.169872 53.097092 -1.7443273 61.582211 -1.7424582 61.590458 -31.140306 -118.00751
2405000000 -33.77832 50.576511 -1.7479733 57.8881 -1.7427881 57.877575 -31.211401 -122.00208
2406000000 -33.516201 48.617691 -1.7462451 54.172848 -1.7437819 54.146091 -31.360605 -128.07811
2407000000 -33.539501 46.759155 -1.7469553 50.459702 -1.743384 50.427399 -31.321215 -133.03139
2408000000 -33.168465 46.711693 -1.7474837 46.742184 -1.7449045 46.723824 -31.520466 -138.95113
2409000000 -32.926582 43.099945 -1.7465869 43.023239 -1.7470838 42.976082 -31.65587 -144.57321
2410000000 -32.901531 42.396198 -1.7519062 39.301426 -1.7467622 39.270096 -31.741533 -149.52728
2411000000 -32.730846 40.645222 -1.749686 35.572826 -1.7478975 35.545204 -31.887848 -155.39932
2412000000 -32.497021 37.085228 -1.7499714 31.88567 -1.7429575 31.847082 -31.867767 -162.12746
2413000000 -32.179047 36.495033 -1.7497964 28.147074 -1.749155 28.133204 -32.166309 -168.26961
2414000000 -32.3354 34.819481 -1.7526044 24.446646 -1.7493715 24.426838 -32.040363 -174.9989
2415000000 -31.898468 33.310051 -1.7513435 20.730215 -1.7466697 20.700346 -32.214226 178.97932
2416000000 -31.918676 32.442875 -1.7502596 17.031027 -1.7491179 16.987013 -32.254227 172.20012
2417000000 -31.564535 29.737736 -1.7498672 13.303925 -1.7467246 13.262933 -32.447628 165.98547
2418000000 -31.66176 28.622854 -1.7472491 9.597579 -1.7485433 9.5622663 -32.361198 158.92505
2419000000 -31.377714 26.458942 -1.751808 5.8355808 -1.7500206 5.8553362 -32.484974 152.92802
2420000000 -31.368713 25.347145 -1.7515532 2.1546154 -1.750042 2.1378129 -32.428841 146.69058
2421000000 -31.218935 23.492102 -1.7516484 -1.58306 -1.7489518 -1.5826396 -32.515583 139.98656
2422000000 -31.262274 21.042278 -1.75333 -5.2877192 -1.754667 -5.2773743 -32.612854 133.0825
2423000000 -31.116838 20.333685 -1.7549924 -9.0020008 -1.7492096 -9.0297928 -32.631504 125.88427
2424000000 -31.088869 18.215942 -1.752749 -12.709207 -1.7487806 -12.715106 -32.624729 119.49355
2425000000 -30.951258 16.339754 -1.7541219 -16.4189 -1.7510638 -16.427732 -32.739677 112.2921
2426000000 -31.00452 14.557543 -1.754241 -20.162926 -1.755396 -20.147423 -32.559483 106.71246
2427000000 -30.853712 13.129538 -1.7573936 -23.873446 -1.7533354 -23.85298 -32.521851 100.09422
2428000000 -30.817081 11.022957 -1.7557137 -27.547255 -1.756797 -27.590775 -32.595379 93.13224
2429000000 -30.988405 10.522436 -1.7543484 -31.301025 -1.7558533 -31.301886 -32.872772 86.333107
2430000000 -30.870302 8.4916668 -1.756773 -35.013935 -1.7535152 -35.021595 -32.690426 79.757538
2431000000 -30.871914 5.7959938 -1.7553507 -38.723278 -1.7579811 -38.725517 -32.704391 73.34742
2432000000 -30.959816 4.734189 -1.7586544 -42.425255 -1.7531474 -42.455536 -32.694309 65.776711
2433000000 -30.964146 3.9291406 -1.7567372 -46.14711 -1.7516143 -46.15567 -32.660618 59.600922
2434000000 -30.994549 2.5290043 -1.7601271 -49.858608 -1.7535238 -49.901283 -32.457939 54.100311
2435000000 -31.141949 1.5117531 -1.75298 -53.592682 -1.7529912 -53.588505 -32.474064 46.160999
2436000000 -31.132111 -1.0390618 -1.758926 -57.300629 -1.7557385 -57.319809 -32.324333 40.590267
2437000000 -31.057236 -2.0379124 -1.7574437 -61.018124 -1.752975 -61.018478 -32.233082 33.361778
2438000000 -31.110897 -2.859462 -1.756444 -64.722427 -1.7564579 -64.742821 -32.195934 27.32159
2439000000 -31.111843 -3.7672708 -1.7623661 -68.471443 -1.7555132 -68.442413 -32.188908 21.092348
2440000000 -31.326584 -5.3324208 -1.7579179 -72.121262 -1.7546519 -72.161736 -32.064201 15.224661
2441000000 -31.267269 -7.1373415 -1.7598716 -75.872414 -1.7581841 -75.889221 -32.029484 8.8785868
2442000000 -31.150509 -7.8987236 -1.7610865 -79.582863 -1.7579201 -79.59259 -32.077911 2.9877806
2443000000 -31.315388 -9.7999125 -1.7574275 -83.292992 -1.7620876 -83.334351 -31.957478 -3.455636
2444000000 -31.411795 -10.827577 -1.7588243 -87.008202 -1.7591822 -87.055588 -31.873325 -8.9956293
2445000000 -31.304142 -10.784484 -1.7608033 -90.728096 -1.757725 -90.756477 -31.676758 -15.690454
2446000000 -31.317371 -11.656337 -1.7631022 -94.455711 -1.7594434 -94.464775 -31.679426 -20.862968
2447000000 -31.287537 -13.296045 -1.7621136 -98.178131 -1.7588472 -98.200531 -31.787285 -25.505116
2448000000 -31.604458 -14.090398 -1.7610297 -101.90565 -1.7591896 -101.90984 -31.774794 -32.860538
2449000000 -31.462175 -15.320554 -1.7625012 -105.60841 -1.7547497 -105.63812 -31.529213 -37.430649
2450000000 -31.434994 -16.795914 -1.7605129 -109.32323 -1.7616242 -109.32999 -31.567747 -43.394753
2451000000 -31.41909 -17.35848 -1.763777 -113.01789 -1.7579194 -113.04841 -31.39131 -48.061905
2452000000 -31.470015 -19.248169 -1.7652969 -116.73825 -1.7608601 -116.77148 -31.439983 -53.23423
2453000000 -31.405476 -19.805889 -1.7626966 -120.4585 -1.7593825 -120.4932 -31.390755 -59.147076
2454000000 -31.580015 -20.556963 -1.7625024 -124.17817 -1.7569742 -124.19965 -31.405634 -64.397339
2455000000 -31.474783 -21.257706 -1.7617508 -127.90927 -1.7596115 -127.90936 -31.57283 -68.955597
2456000000 -31.455935 -24.196289 -1.7630482 -131.58372 -1.7641357 -131.61066 -31.405405 -74.421326
2457000000 -31.420172 -23.296818 -1.7645519 -135.32622 -1.7645717 -135.36282 -31.461205 -79.669136
2458000000 -31.614046 -24.347795 -1.7672824 -139.05705 -1.7575144 -139.09067 -31.768236 -85.738953
2459000000 -31.497128 -25.71209 -1.7624815 -142.76996 -1.7601973 -142.78542 -31.852461 -90.058739
2460000000 -31.606133 -26.293293 -1.7665257 -146.48651 -1.7621773 -146.48068 -31.922171 -93.917381
2461000000 -31.583963 -27.354763 -1.765244 -150.18005 -1.7613117 -150.21408 -32.098289 -99.337296
2462000000 -31.273247 -28.80101 -1.7649331 -153.92677 -1.7626617 -153.92749 -32.114941 -104.04623
2463000000 -31.508026 -30.201113 -1.7650626 -157.59816 -1.7633551 -157.65337 -32.283459 -108.88314
2464000000 -31.391352 -30.924902 -1.7666731 -161.31799 -1.765222 -161.36772 -32.439655 -114.77868
2465000000 -31.311354 -31.512083 -1.767296 -165.04674 -1.763514 -165.05592 -32.754635 -119.36717
2466000000 -31.320768 -33.23444 -1.7650948 -168.7682 -1.7649996 -168.79449 -33.113087 -124.89005
2467000000 -31.442142 -33.82608 -1.7694912 -172.45308 -1.7645417 -172.49554 -33.192669 -130.41336
2468000000 -31.498793 -35.13942 -1.7662827 -176.17818 -1.7673243 -176.22556 -33.502407 -135.11896
2469000000 -31.526447 -36.472042 -1.7647034 -179.89838 -1.7682663 -179.93636 -33.822414 -140.41171
2470000000 -31.280245 -37.779182 -1.770434 176.37042 -1.7640043 176.3501 -34.124081 -145.78166
2471000000 -31.455746 -38.707218 -1.7707827 172.6683 -1.7668943 172.62651 -34.366058 -151.09152
2472000000 -31.432907 -40.467289 -1.7710392 168.91725 -1.7622763 168.93857 -34.870605 -158.97137
2473000000 -31.387081 -41.372578 -1.7694702 165.22206 -1.7643039 165.2009 -34.937733 -164.02368
2474000000 -31.477406 -42.893063 -1.770782 161.51741 -1.7635571 161.49866 -35.205353 -169.4883
2475000000 -31.606203 -43.87019 -1.7709922 157.79074 -1.7658116 157.77226 -35.474457 -175.00946
2476000000 -31.635351 -45.732552 -1.770473 154.05255 -1.7661529 154.05734 -35.798294 177.5583
2477000000 -31.816479 -46.757801 -1.7716082 150.33467 -1.7667248 150.35466 -36.222202 170.60139
2478000000 -32.015755 -47.651066 -1.7710193 146.62321 -1.7654147 146.62924 -36.728069 165.79303
2479000000 -31.679277 -50.146126 -1.7686926 142.9205 -1.7673788 142.90648 -36.961082 157.174
2480000000 -32.168736 -52.613155 -1.7744172 139.22025 -1.7704916 139.21225 -37.356773 151.27785
2481000000 -31.977276 -53.710464 -1.7693999 135.52377 -1.7694761 135.50081 -37.651505 144.63771
2482000000 -32.254066 -54.660507 -1.7705983 131.78294 -1.7690185 131.75821 -37.669819 140.33928
2483000000 -32.523338 -56.668671 -1.7726454 128.06038 -1.7714972 128.06032 -38.343613 133.9678
2484000000 -32.612144 -56.788208 -1.7727823 124.38397 -1.770306 124.33331 -38.544136 125.23596
2485000000 -32.786434 -59.712494 -1.7703921 120.61578 -1.7724581 120.61188 -38.609844 119.16422
2486000000 -32.748096 -61.377392 -1.7745095 116.93 -1.7693403 116.91105 -38.982136 112.95129
2487000000 -32.88414 -62.962036 -1.7734907 113.21869 -1.7676382 113.19265 -38.971325 106.55733
2488000000 -33.121555 -64.304817 -1.7731421 109.50556 -1.7689101 109.4726 -39.389748 95.462639
2489000000 -33.137585 -66.696266 -1.774002 105.81007 -1.7731608 105.74117 -39.988354 89.63681
2490000000 -33.659374 -67.964973 -1.7733489 102.0818 -1.7712886 102.02979 -39.978065 84.683716
2491000000 -33.83453 -68.456955 -1.7751122 98.357704 -1.7698932 98.326271 -40.476921 74.165039
2492000000 -34.013161 -70.594925 -1.7716912 94.606941 -1.7711381 94.620979 -40.313263 67.543724
2493000000 -34.115299 -73.423729 -1.7735506 90.915703 -1.7768983 90.900826 -40.170685 62.123714
2494000000 -34.196312 -73.958549 -1.779649 87.186356 -1.7685405 87.187798 -40.873749 52.978855
2495000000 -34.633606 -75.239189 -1.7741655 83.472282 -1.7781061 83.422371 -40.461971 46.190304
2496000000 -34.598969 -77.215065 -1.7780355 79.760002 -1.7692937 79.72728 -40.886452 39.22234
2497000000 -34.913239 -78.609848 -1.7736121 76.02816 -1.7733926 76.004715 -40.569485 34.602573
2498000000 -34.973419 -79.544426 -1.7740083 72.353264 -1.7754763 72.299797 -40.597816 28.67531
2499000000 -35.251606 -81.649986 -1.7760814 68.600174 -1.7763441 68.595787 -40.425991 21.530504
2500000000 -35.534611 -83.736649 -1.7760448 64.889481 -1.7755095 64.884117 -40.200218 14.615326
2501000000 -35.669422 -85.7854 -1.7734494 61.211929 -1.7748983 61.163677 -40.601345 8.0981035
2502000000 -36.050861 -84.973877 -1.775926 57.464703 -1.7754257 57.437138 -40.490658 1.936825
2503000000 -36.091602 -87.45665 -1.7784909 53.740826 -1.7762245 53.740494 -40.137897 -3.4116621
2504000000 -36.341228 -88.508362 -1.7786008 50.043533 -1.7790926 50.011543 -39.688438 -8.6830845
2505000000 -36.6591 -89.882927 -1.7774037 46.320808 -1.7769758 46.295609 -39.673435 -10.512815
2506000000 -36.547291 -89.248253 -1.78124 42.603474 -1.7760258 42.594265 -39.557652 -18.886387
2507000000 -36.925236 -92.081329 -1.7801228 38.887943 -1.776516 38.862629 -39.577877 -20.862219
2508000000 -37.043766 -94.441505 -1.7826067 35.167259 -1.7760822 35.144115 -39.78363 -21.864401
2509000000 -37.209618 -95.352539 -1.776445 31.456806 -1.7795331 31.45332 -39.08564 -27.135418
2510000000 -37.626644 -96.418266 -1.7788274 27.7201 -1.7784535 27.72283 -39.3675 -29.675604
2511000000 -37.733086 -97.384346 -1.7788321 24.026941 -1.7775241 23.994635 -39.310734 -31.587931
2512000000 -38.087692 -98.102264 -1.7814115 20.275288 -1.7738688 20.300831 -39.209061 -33.245956
2513000000 -37.97744 -97.837212 -1.7789276 16.591822 -1.7791221 16.559931 -38.811749 -37.384895
2514000000 -38.181587 -98.659431 -1.7817109 12.87259 -1.7787883 12.837231 -38.605293 -39.79332
2515000000 -38.464958 -101.69915 -1.7810491 9.1461515 -1.7807964 9.131896 -38.603374 -45.373318
2516000000 -38.613247 -100.53937 -1.7800393 5.431035 -1.7793 5.4187784 -38.918282 -44.890179
2517000000 -38.839664 -103.63779 -1.7830375 1.7187455 -1.7809446 1.6947477 -38.632179 -44.010666
2518000000 -39.093689 -103.96835 -1.7806244 -2.0024376 -1.7815703 -2.0216503 -38.559166 -47.873936
2519000000 -39.459137 -108.7435 -1.7847778 -5.7136126 -1.7810328 -5.7392602 -38.466801 -50.282578
2520000000 -39.527508 -108.19771 -1.7826165 -9.4282856 -1.7810987 -9.4559927 -38.444424 -52.423756
2521000000 -40.027279 -108.2914 -1.7805721 -13.130895 -1.7839044 -13.157757 -38.639797 -55.918682
2522000000 -40.16399 -110.91171 -1.7840348 -16.847618 -1.7824807 -16.87928 -38.621548 -59.292461
2523000000 -40.156906 -117.19644 -1.7835274 -20.56237 -1.7832128 -20.588745 -38.04454 -60.786198
2524000000 -40.486443 -114.40527 -1.7867713 -24.272871 -1.783294 -24.322821 -38.272636 -61.363979
2525000000 -40.789852 -119.40189 -1.7859621 -28.003023 -1.7827367 -28.00791 -38.380413 -64.071625
2526000000 -41.254444 -120.82945 -1.7836046 -31.73822 -1.7848777 -31.755917 -37.785782 -67.502716
2527000000 -41.478416 -122.77711 -1.7868257 -35.436512 -1.7862866 -35.445026 -38.268318 -68.310051
2528000000 -41.546726 -127.40184 -1.790187 -39.139347 -1.7806915 -39.181232 -37.798809 -71.109123
2529000000 -42.010227 -130.86261 -1.7831956 -42.851025 -1.7868065 -42.894905 -37.62027 -75.232109
2530000000 -42.283829 -131.10948 -1.7835157 -46.590649 -1.7863199 -46.614384 -37.662323 -77.552109
2531000000 -42.506134 -140.47435 -1.7898774 -50.319843 -1.7852709 -50.303822 -37.642925 -81.771538
2532000000 -42.92358 -141.14136 -1.7903645 -54.044819 -1.7849495 -54.015003 -37.591328 -84.614769
2533000000 -43.090313 -150.31625 -1.7891476 -57.732121 -1.7871448 -57.768547 -37.420734 -88.321587
2534000000 -42.771797 -151.58609 -1.7897007 -61.477734 -1.78696 -61.492474 -37.032192 -93.598129
2535000000 -43.134151 -160.18015 -1.7903031 -65.155174 -1.787351 -65.206306 -37.126423 -94.953323
2536000000 -42.922047 -164.43919 -1.7906506 -68.87912 -1.7898453 -68.893929 -36.962765 -99.361954
2537000000 -43.458073 -172.14079 -1.7895291 -72.605438 -1.7862847 -72.625534 -36.735424 -102.89095
2538000000 -42.741901 -176.77104 -1.7926782 -76.330505 -1.7881165 -76.36351 -36.958973 -109.94685
2539000000 -42.701401 175.54842 -1.7933092 -80.021103 -1.789798 -80.0532 -36.930725 -111.39491
2540000000 -42.658356 173.02089 -1.7901354 -83.739906 -1.786346 -83.765724 -36.974323 -116.56937
2541000000 -42.144466 159.19415 -1.7958007 -87.454765 -1.7886143 -87.474266 -36.618946 -121.23366
2542000000 -42.872437 157.81717 -1.7888248 -91.195412 -1.7906146 -91.190788 -36.637524 -126.77708
2543000000 -41.452785 152.94887 -1.795763 -94.895966 -1.7891062 -94.906006 -36.641705 -131.46245
2544000000 -41.796215 147.4418 -1.7898563 -98.618225 -1.7920047 -98.606155 -36.485455 -136.65538
2545000000 -41.476959 147.29352 -1.7930666 -102.36935 -1.7940905 -102.35151 -36.148964 -140.33899
2546000000 -40.252773 140.00362 -1.7912011 -106.05911 -1.7954817 -106.07915 -36.328701 -146.06216
2547000000 -40.323078 133.62274 -1.7940251 -109.76057 -1.7938361 -109.8085 -36.10482 -152.18182
2548000000 -40.429932 132.60234 -1.7965326 -113.49319 -1.7895119 -113.49527 -36.044212 -158.16928
2549000000 -40.091084 124.60257 -1.7941037 -117.17603 -1.7931633 -117.19583 -36.137356 -161.14322
2550000000 -39.700333 123.68727 -1.7959917 -120.94116 -1.794072 -120.91059 -36.190842 -167.30766
2551000000 -38.940308 119.60533 -1.7935576 -124.63033 -1.7953326 -124.6506 -36.163063 -173.20093
2552000000 -38.831669 115.7056 -1.7964661 -128.36035 -1.7918749 -128.36302 -36.018681 -177.73402
2553000000 -38.634663 111.51241 -1.8004175 -132.09236 -1.793851 -132.08871 -35.979347 174.86469
2554000000 -37.988243 111.08569 -1.7946281 -135.76335 -1.7941617 -135.78828 -36.066303 167.75233
2555000000 -38.292442 104.62382 -1.7988948 -139.49936 -1.7998706 -139.49527 -36.07618 162.57355
2556000000 -37.989235 102.49746 -1.7977308 -143.19971 -1.7982196 -143.23415 -36.018532 156.43463
2557000000 -37.731934 98.98661 -1.7994447 -146.93102 -1.7954906 -146.92047 -35.871441 149.70673
2558000000 -37.346581 97.013992 -1.7995826 -150.62915 -1.7949529 -150.64742 -35.952972 144.4066
2559000000 -37.183449 94.475098 -1.7988955 -154.33591 -1.798619 -154.3792 -35.956387 134.25693
2560000000 -36.700829 91.547348 -1.8017919 -158.0775 -1.7948296 -158.06981 -35.921246 128.65508
2561000000 -36.587437 87.444351 -1.800735 -161.79041 -1.7980186 -161.81197 -35.749416 121.12276
2562000000 -36.526295 85.657166 -1.803969 -165.5112 -1.7982343 -165.51421 -35.611832 113.58195
2563000000 -36.207726 83.636452 -1.8011523 -169.18103 -1.7976638 -169.24341 -35.275791 105.99581
2564000000 -36.060032 79.86113 -1.8070179 -172.92659 -1.801065 -172.96239 -35.297924 99.483253
2565000000 -35.931599 76.375961 -1.8057758 -176.63531 -1.7984616 -176.6689 -35.187565 91.982422
2566000000 -35.47419 75.333618 -1.8017566 179.64589 -1.8011597 179.60344 -34.562561 83.53849
2567000000 -35.421688 72.741325 -1.8045177 175.8943 -1.801886 175.90077 -34.396637 78.345573
2568000000 -34.988678 70.123108 -1.8023584 172.20129 -1.8026167 172.20131 -34.068199 71.420227
2569000000 -34.719368 67.849022 -1.8055545 168.48964 -1.8034821 168.47293 -33.867332 64.196236
2570000000 -34.619289 64.835999 -1.8010237 164.75645 -1.8055847 164.77441 -33.567005 58.269356
2571000000 -34.632919 63.453926 -1.8039248 161.02281 -1.806201 161.05106 -33.14687 51.496399
2572000000 -34.191708 62.314011 -1.8049904 157.34451 -1.8034977 157.33916 -32.713799 45.700432
2573000000 -33.895336 59.603558 -1.8042463 153.62617 -1.8044224 153.60841 -32.424446 39.939232
2574000000 -33.691601 55.683983 -1.8045808 149.88608 -1.8038671 149.89104 -32.236423 34.912262
2575000000 -33.382107 53.419365 -1.8062285 146.18076 -1.8069814 146.16341 -31.888813 28.819925
2576000000 -33.291748 53.397655 -1.8077154 142.48521 -1.8042377 142.47223 -31.448832 23.455429
2577000000 -33.32233 51.275169 -1.8093945 138.7374 -1.8072354 138.76006 -31.330896 18.304546
2578000000 -33.027687 48.301498 -1.8075403 135.0293 -1.8055917 135.02835 -31.054005 13.193705
2579000000 -32.900528 46.418839 -1.8051955 131.29987 -1.8108982 131.33493 -30.896996 8.626193
2580000000 -32.521881 45.544945 -1.8105317 127.62238 -1.8070357 127.62172 -30.713966 4.4357071
2581000000 -32.387833 43.476589 -1.8069932 123.90985 -1.8082972 123.89592 -30.346804 -1.7571543
2582000000 -32.086597 41.783909 -1.8094698 120.19629 -1.809526 120.19237 -30.346054 -6.6370959
2583000000 -32.047379 40.762444 -1.8080388 116.46795 -1.8064839 116.44498 -30.116177 -12.134451
2584000000 -32.075569 38.492958 -1.8129265 112.75568 -1.8092519 112.72285 -29.934828 -16.355431
2585000000 -31.822182 36.25383 -1.8104759 109.03645 -1.8109205 109.06767 -29.8379 -21.008442
2586000000 -31.757586 34.965515 -1.8108342 105.33073 -1.810077 105.30329 -29.747055 -25.763029
2587000000 -31.631901 32.759438 -1.8127843 101.623 -1.8119049 101.59541 -29.617867 -30.604578
2588000000 -31.547125 31.448689 -1.8116775 97.888802 -1.8103935 97.869888 -29.667862 -36.502884
2589000000 -31.464636 30.556293 -1.8138788 94.202362 -1.8096104 94.167099 -29.627846 -40.193035
2590000000 -31.383766 27.835886 -1.8113656 90.451996 -1.8108734 90.453369 -29.528551 -45.357338
2591000000 -31.294706 26.947212 -1.8109299 86.753166 -1.8132787 86.746651 -29.507343 -50.457844
2592000000 -31.191641 25.667328 -1.812396 83.037613 -1.8134645 83.015747 -29.352613 -56.591362
2593000000 -31.061275 24.73876 -1.8119128 79.320152 -1.8110042 79.300606 -29.527296 -60.805092
2594000000 -30.961866 22.075081 -1.8137248 75.627541 -1.8139924 75.565659 -29.427231 -66.215973
2595000000 -30.908388 21.519093 -1.8164423 71.885384 -1.8117254 71.881187 -29.368546 -71.436707
2596000000 -30.645935 18.744682 -1.8183261 68.172501 -1.8132044 68.15451 -29.433577 -75.496048
2597000000 -30.670866 17.065201 -1.8178024 64.450729 -1.8124602 64.457901 -29.434006 -82.015541
2598000000 -30.644325 16.511459 -1.8179324 60.752346 -1.8116134 60.720627 -29.585108 -86.467842
2599000000 -30.755707 15.302542 -1.8171817 57.033306 -1.8148663 57.01767 -29.633383 -91.412148
2600000000 -30.606129 12.920851 -1.8166515 53.317799 -1.812222 53.3022 -29.643509 -97.479721
2601000000 -30.725542 11.840089 -1.8209856 49.588753 -1.8174516 49.593235 -29.656139 -102.77137
2602000000 -30.537968 11.465967 -1.8210729 45.853436 -1.8178072 45.885563 -29.708784 -107.40016
2603000000 -30.401873 7.7958531 -1.8188219 42.160397 -1.8188373 42.106998 -29.76944 -112.11823
2604000000 -30.573853 7.3502431 -1.8213347 38.459415 -1.8156039 38.427551 -29.84515 -117.58498
2605000000 -30.48715 6.2456732 -1.8199345 34.754848 -1.8140981 34.719746 -30.084837 -123.6431
2606000000 -30.295774 4.2392077 -1.8214269 31.022863 -1.8172301 31.040895 -30.119823 -127.87344
2607000000 -30.30032 2.8582397 -1.8191041 27.339846 -1.818002 27.306246 -30.348061 -133.22957
2608000000 -30.321625 0.46456444 -1.8182408 23.59444 -1.8166622 23.578842 -30.441702 -139.28793
2609000000 -30.285543 -0.4797399 -1.8204073 19.884565 -1.8181506 19.859846 -30.627642 -145.44904
2610000000 -30.217564 -1.5283818 -1.8204013 16.168304 -1.8212029 16.169891 -30.830858 -149.33043
2611000000 -30.222692 -3.8206947 -1.8219184 12.443824 -1.8189259 12.425097 -31.017349 -155.20711
2612000000 -30.318558 -5.3806024 -1.8233484 8.7475004 -1.8153003 8.7267218 -31.445618 -161.19385
2613000000 -30.29858 -6.7222252 -1.8217392 5.0184064 -1.8207619 4.9967146 -31.265919 -166.98245
2614000000 -30.225098 -8.0324659 -1.8227682 1.2927169 -1.8174984 1.2953899 -31.664263 -173.21228
2615000000 -30.291073 -8.8469639 -1.8201624 -2.389833 -1.8154191 -2.4269431 -31.917562 179.68513
2616000000 -30.365219 -11.822508 -1.8211919 -6.1145568 -1.8219033 -6.1476655 -32.246548 174.95404
2617000000 -30.258486 -12.679133 -1.8223803 -9.8324661 -1.8212812 -9.8561897 -32.470905 167.21901
2618000000 -30.122543 -13.967706 -1.8255904 -13.57925 -1.8198644 -13.586973 -32.570282 161.55562
2619000000 -30.20529 -14.656644 -1.8248562 -17.25613 -1.8191872 -17.272127 -32.898785 154.19637
2620000000 -30.293264 -16.488371 -1.8221987 -20.970478 -1.8204352 -20.996796 -33.106483 146.31387
2621000000 -30.414661 -17.477547 -1.8230219 -24.697699 -1.8237395 -24.724339 -33.562153 138.98148
2622000000 -30.39192 -19.241894 -1.8248845 -28.412611 -1.8193142 -28.431536 -33.676834 132.31409
2623000000 -30.327255 -19.901615 -1.8244499 -32.143421 -1.8203714 -32.167099 -33.718967 124.42735
2624000000 -30.334986 -21.704832 -1.8242935 -35.834785 -1.8199341 -35.873749 -33.664474 116.54151
2625000000 -30.186197 -21.928694 -1.8213691 -39.569679 -1.823487 -39.564056 -34.020428 107.99925
2626000000 -30.234329 -22.765947 -1.8267436 -43.266541 -1.8213485 -43.293388 -33.98946 99.367859
2627000000 -30.319614 -24.981756 -1.8264039 -46.987728 -1.8209722 -47.0182 -34.077763 91.427307
2628000000 -30.205994 -26.424532 -1.8261137 -50.698475 -1.8237132 -50.717949 -33.919617 82.847
2629000000 -30.237379 -27.282091 -1.8237277 -54.422001 -1.8187015 -54.444359 -33.877632 75.844559
2630000000 -30.310061 -28.561008 -1.8277309 -58.145264 -1.8215797 -58.166943 -33.629959 68.590225
2631000000 -30.316832 -28.8673 -1.8290497 -61.849945 -1.8276469 -61.886803 -33.40123 61.4011
2632000000 -30.327286 -30.269445 -1.8279454 -65.56813 -1.8200668 -65.605095 -33.457108 54.031536
2633000000 -30.295273 -32.600037 -1.8258418 -69.281822 -1.8229636 -69.31073 -33.010521 47.058254
2634000000 -30.458458 -32.558868 -1.8261902 -72.995087 -1.8265994 -73.027618 -32.823315 40.108238
2635000000 -30.464041 -33.280228 -1.8270228 -76.725166 -1.8222558 -76.758926 -32.913155 34.173676
2636000000 -30.471424 -34.723743 -1.8281871 -80.434242 -1.828141 -80.452026 -32.721161 28.739708
2637000000 -30.432184 -36.101456 -1.8295771 -84.147034 -1.8316679 -84.158791 -32.314381 22.27227
2638000000 -30.514856 -36.360683 -1.829921 -87.887878 -1.8240397 -87.879082 -32.320728 16.119164
2639000000 -30.684568 -38.217113 -1.8284743 -91.583801 -1.8272499 -91.596634 -32.113308 9.61444
2640000000 -30.713036 -39.080074 -1.8293207 -95.321251 -1.8255579 -95.356133 -32.159962 5.7040625
2641000000 -30.588919 -40.423229 -1.829164 -98.998482 -1.8269593 -99.038193 -31.939426 -0.14278646
2642000000 -30.56851 -40.571854 -1.8316624 -102.70902 -1.8262005 -102.75259 -31.813467 -5.8919373
2643000000 -30.60508 -42.444118 -1.8286091 -106.43165 -1.8277743 -106.4715 -31.766003 -10.394538
2644000000 -30.777586 -43.196922 -1.8325943 -110.14609 -1.8271438 -110.18694 -31.788473 -15.682043
2645000000 -30.657433 -45.479504 -1.830269 -113.88088 -1.8310096 -113.84901 -31.540848 -21.406374
2646000000 -30.901855 -45.826637 -1.8305937 -117.57955 -1.827667 -117.59978 -31.531485 -25.608007
2647000000 -30.894308 -47.550083 -1.8332528 -121.31915 -1.8300951 -121.31541 -31.354427 -31.902714
2648000000 -30.943525 -48.234879 -1.8358589 -125.02246 -1.8300614 -125.03214 -31.584003 -36.220821
2649000000 -30.853352 -49.723675 -1.8344227 -128.74207 -1.8277159 -128.76793 -31.452051 -39.668217
2650000000 -31.021507 -50.975517 -1.8309259 -132.44818 -1.8283421 -132.46149 -31.658136 -44.453362
2651000000 -31.068512 -53.020302 -1.8299254 -136.16728 -1.8260412 -136.17757 -31.729389 -49.221668
2652000000 -31.171295 -54.525993 -1.8303807 -139.89908 -1.8310238 -139.88597 -31.744501 -54.698391
2653000000 -31.138973 -55.24062 -1.8368281 -143.60588 -1.8278638 -143.62955 -31.643124 -59.7248
2654000000 -31.051607 -57.03508 -1.832809 -147.35368 -1.8304793 -147.30267 -31.643389 -64.372635
2655000000 -31.334692 -60.167068 -1.8278062 -151.02409 -1.8355073 -151.0415 -31.76968 -70.183197
2656000000 -31.315857 -59.936577 -1.8334273 -154.72964 -1.8313853 -154.7755 -31.828875 -73.269852
2657000000 -31.357723 -61.973728 -1.8347213 -158.47508 -1.8342308 -158.47586 -31.860861 -77.454308
2658000000 -31.399725 -64.271187 -1.8381184 -162.16635 -1.8312196 -162.20737 -31.98452 -83.075722
2659000000 -31.45071 -65.145088 -1.8309401 -165.90707 -1.830862 -165.94011 -32.111156 -86.169044
2660000000 -31.451998 -68.067329 -1.839402 -169.60667 -1.8305823 -169.6169 -32.103149 -91.02951
2661000000 -31.5851 -69.384109 -1.8327553 -173.32678 -1.8322529 -173.35362 -32.208298 -94.845688
2662000000 -31.588961 -72.067314 -1.834373 -177.02638 -1.8337578 -177.06302 -32.278313 -98.007156
2663000000 -31.707127 -74.788315 -1.8359336 179.24695 -1.8345854 179.22279 -32.552864 -102.94543
2664000000 -31.672606 -75.164536 -1.836079 175.53404 -1.8313644 175.48808 -32.556808 -106.90355
2665000000 -31.791386 -78.020935 -1.8350621 171.81023 -1.8366692 171.8046 -32.805031 -110.98812
2666000000 -31.835598 -80.229782 -1.8377382 168.08495 -1.8351099 168.06897 -32.986347 -114.39966
2667000000 -31.985786 -82.028389 -1.8378896 164.37148 -1.836817 164.38329 -32.964958 -118.59402
2668000000 -31.992584 -84.368401 -1.836879 160.66487 -1.8358012 160.66965 -33.319084 -122.27199
2669000000 -32.006542 -86.852119 -1.8362117 156.9603 -1.8355026 156.9169 -33.423191 -124.94722
2670000000 -32.278358 -88.234856 -1.8382555 153.22939 -1.8359189 153.24234 -33.526947 -127.74741
2671000000 -32.327869 -91.103111 -1.8349464 149.52484 -1.836527 149.48053 -33.879597 -131.19507
2672000000 -32.560772 -92.247917 -1.8392975 145.81161 -1.8326018 145.7894 -33.970676 -135.56746
2673000000 -32.407818 -95.368202 -1.8404696 142.10107 -1.8356621 142.02905 -34.242111 -137.62149
2674000000 -32.567173 -98.398743 -1.8372006 138.3992 -1.8403379 138.34129 -34.473553 -141.90833
2675000000 -32.727188 -101.1752 -1.837765 134.64862 -1.8370079 134.6339 -34.812096 -144.2028
2676000000 -33.02272 -103.06472 -1.8406155 130.94624 -1.8349595 130.91112 -35.073681 -146.14575
2677000000 -32.91209 -105.05846 -1.8395728 127.22034 -1.8386263 127.20548 -35.51276 -152.23051
2678000000 -33.434097 -107.76125 -1.8406053 123.50591 -1.8373394 123.47634 -35.851746 -153.17334
2679000000 -33.53521 -109.66623 -1.8426694 119.78078 -1.8376919 119.73998 -35.907272 -157.54068
2680000000 -33.570782 -113.71563 -1.8419173 116.06693 -1.8352976 116.06139 -36.679577 -159.10358
2681000000 -33.95076 -115.79576 -1.8405269 112.35574 -1.8417974 112.3363 -36.67725 -162.03407
2682000000 -34.345554 -119.1822 -1.8412673 108.63084 -1.8405997 108.63332 -37.018906 -164.90363
2683000000 -34.539734 -120.02734 -1.8425071 104.9324 -1.8386188 104.88969 -37.430622 -168.27791
2684000000 -34.894432 -124.99809 -1.8431561 101.20441 -1.8381761 101.22004 -37.877228 -170.25319
2685000000 -34.888096 -127.73227 -1.8369561 97.472694 -1.8398021 97.454933 -38.0863 -172.40146
2686000000 -35.230415 -130.11948 -1.8442273 93.777557 -1.8421566 93.76561 -38.723297 177.87677
2687000000 -35.684437 -133.55592 -1.8414307 90.053383 -1.8420478 90.061737 -39.123165 177.58792
2688000000 -36.233997 -134.94984 -1.8462516 86.367897 -1.8435253 86.321663 -39.034477 172.76546
2689000000 -36.671097 -139.9332 -1.8426013 82.631721 -1.8430017 82.606674 -39.255627 169.25186
2690000000 -36.475018 -143.37677 -1.8446727 78.905853 -1.8424022 78.882591 -39.535645 164.21893
2691000000 -37.117626 -146.85896 -1.8463174 75.209412 -1.8389738 75.182915 -39.891266 159.98038
2692000000 -37.397243 -151.33751 -1.8417151 71.49234 -1.8426028 71.463715 -39.967152 157.94682
2693000000 -38.097435 -156.46237 -1.8495598 67.759613 -1.8474652 67.750687 -40.231441 150.63268
2694000000 -38.14426 -159.90503 -1.8443798 64.068703 -1.8430263 64.028236 -40.572456 147.68565
2695000000 -38.409809 -162.6338 -1.8440449 60.355637 -1.8441062 60.304512 -40.551956 140.05905
2696000000 -38.846382 -167.9256 -1.8485328 56.6049 -1.8453132 56.590694 -40.089043 136.94655
2697000000 -39.491848 -174.72121 -1.8485011 52.887581 -1.8433836 52.895409 -40.577003 128.09663
2698000000 -39.79744 -177.12813 -1.8492991 49.174679 -1.8482305 49.164692 -40.393291 125.81539
2699000000 -40.302303 174.55548 -1.8460386 45.456299 -1.8440932 45.456562 -40.541397 118.24654
2700000000 -40.037327 171.9406 -1.846768 41.778526 -1.8449277 41.732212 -40.211304 117.02905
2701000000 -40.121311 166.72563 -1.8503672 38.026928 -1.84567 38.032139 -40.317829 111.08233
2702000000 -40.711689 156.62393 -1.8481528 34.332001 -1.8464856 34.295864 -39.974522 102.90468
2703000000 -40.399799 154.00102 -1.8528 30.622324 -1.8475733 30.592506 -39.827888 101.14983
2704000000 -41.028206 151.11131 -1.8514795 26.906298 -1.8460817 26.861578 -40.052753 91.973503
2705000000 -40.553635 142.27841 -1.8497775 23.175514 -1.8469079 23.162083 -39.451004 87.469185
2706000000 -40.862553 140.01703 -1.8517591 19.436453 -1.8512571 19.462639 -39.216839 84.087723
2707000000 -41.303722 133.52094 -1.8479793 15.714597 -1.8525176 15.739439 -39.167198 78.615074
2708000000 -40.975819 126.85032 -1.8532553 12.021332 -1.8492135 12.019292 -38.682613 71.789902
2709000000 -41.344978 122.45773 -1.8478703 8.3174343 -1.8495768 8.3013391 -38.667992 65.601784
2710000000 -40.765156 119.83736 -1.8482194 4.5996747 -1.8492725 4.5830173 -38.551662 61.644936
2711000000 -41.133427 116.3299 -1.8526093 0.89078301 -1.8454304 0.87646896 -38.267174 54.37254
2712000000 -40.729458 110.1338 -1.8499945 -2.8615084 -1.8511378 -2.8570211 -37.771683 50.641968
2713000000 -40.822422 106.50291 -1.8506407 -6.5443878 -1.8508631 -6.5698647 -37.42144 43.375713
2714000000 -40.889637 102.09323 -1.8550128 -10.264686 -1.8517721 -10.309669 -37.722225 37.763687
2715000000 -40.654839 101.15089 -1.8510438 -13.982072 -1.8551155 -13.999111 -37.484562 32.187805
2716000000 -40.332298 96.119102 -1.8514494 -17.686605 -1.8507334 -17.704119 -37.118092 28.577036
2717000000 -40.300591 94.446449 -1.8568034 -21.402361 -1.8495475 -21.417049 -36.687447 21.2938
2718000000 -40.397614 90.662811 -1.8556012 -25.116768 -1.852951 -25.150051 -36.385048 15.861916
2719000000 -39.816261 84.773285 -1.8528472 -28.845207 -1.856443 -28.873894 -35.914589 9.2370176
2720000000 -39.937771 82.79937 -1.855058 -32.568947 -1.8548453 -32.597118 -35.820118 5.2433653
2721000000 -39.989086 80.08596 -1.8510847 -36.279636 -1.8530673 -36.28854 -35.604866 0.69462997
2722000000 -39.850014 80.115303 -1.8553793 -40.002094 -1.8543755 -39.998371 -35.222862 -5.9326057
2723000000 -39.80751 76.392456 -1.8589126 -43.741013 -1.8538932 -43.702919 -34.926579 -9.8054953
2724000000 -39.37392 81.424156 -1.8561454 -47.427757 -1.8557072 -47.449043 -34.614189 -16.164183
2725000000 -39.140945 73.639679 -1.8547596 -51.14027 -1.8544806 -51.150909 -34.284416 -19.591959
2726000000 -39.079018 69.350342 -1.8604336 -54.868828 -1.8551239 -54.879375 -34.189285 -26.494902
2727000000 -39.388622 69.266739 -1.8573123 -58.570225 -1.8570948 -58.620743 -33.998245 -32.005302
2728000000 -39.061932 66.339676 -1.8608202 -62.282051 -1.8569765 -62.314274 -33.835236 -35.474888
2729000000 -38.822227 64.929314 -1.8583578 -65.996017 -1.8535484 -66.038368 -33.517834 -40.791481
2730000000 -38.576725 63.585789 -1.8576685 -69.689865 -1.8569487 -69.752419 -33.405159 -46.179546
2731000000 -38.14225 63.216938 -1.8612926 -73.428505 -1.859691 -73.474159 -33.163143 -50.383583
2732000000 -38.170036 57.397167 -1.8581854 -77.13089 -1.858023 -77.156181 -33.125122 -55.44643
2733000000 -37.832153 60.846195 -1.8593289 -80.870468 -1.8595374 -80.918671 -33.001194 -60.413754
2734000000 -37.553188 58.139812 -1.859643 -84.610191 -1.8614292 -84.583832 -33.032516 -64.201256
2735000000 -37.71357 56.223541 -1.8592613 -88.315865 -1.8598726 -88.325821 -32.898426 -69.009537
2736000000 -36.997414 52.873661 -1.8587399 -92.00386 -1.8628231 -92.006912 -32.712215 -74.360695
2737000000 -36.96933 52.105709 -1.8598464 -95.733269 -1.859249 -95.743004 -32.703564 -79.340385
2738000000 -36.77541 51.836575 -1.8626633 -99.450676 -1.8661157 -99.500427 -32.708275 -84.090286
2739000000 -36.490421 51.80648 -1.8607979 -103.17393 -1.8632966 -103.18787 -32.627304 -89.156044
2740000000 -36.183773 48.70908 -1.8601491 -106.87728 -1.8595123 -106.9002 -32.621758 -94.481567
2741000000 -36.012688 47.766388 -1.8650494 -110.61574 -1.8607987 -110.60778 -32.769066 -99.932701
2742000000 -35.850292 46.496006 -1.8656547 -114.31081 -1.8616824 -114.3438 -32.792915 -104.79369
2743000000 -35.692257 46.233299 -1.8673388 -118.01194 -1.8602294 -118.06247 -32.76265 -110.48511
2744000000 -35.416317 43.390419 -1.8641057 -121.75994 -1.8631344 -121.77065 -32.970188 -116.09893
2745000000 -35.137337 41.5658 -1.8634059 -125.4469 -1.867533 -125.48574 -32.98481 -122.55405
2746000000 -34.827217 42.781528 -1.8654339 -129.18605 -1.8590674 -129.19647 -33.183624 -128.77266
2747000000 -34.716782 41.713158 -1.8679127 -132.88239 -1.8634456 -132.91232 -33.164513 -134.2894
2748000000 -34.61911 40.382248 -1.8686266 -136.58112 -1.8642106 -136.60982 -33.199604 -139.50648
2749000000 -34.170029 39.014797 -1.8677375 -140.31618 -1.8619797 -140.34297 -33.338676 -147.26373
2750000000 -33.853939 36.946545 -1.8684965 -144.05894 -1.8637685 -144.05879 -33.502052 -153.72864
2751000000 -33.786144 36.984066 -1.865589 -147.76433 -1.8660362 -147.77002 -33.55957 -160.09097
2752000000 -33.52895 34.950336 -1.8646417 -151.50346 -1.8686776 -151.46304 -33.594868 -167.54202
2753000000 -33.358646 34.11264 -1.8689184 -155.20605 -1.863596 -155.21001 -33.730709 -173.56807
2754000000 -33.369064 33.044472 -1.8694201 -158.88449 -1.8706981 -158.90623 -33.500374 -179.61357
2755000000 -33.103374 31.212284 -1.8693961 -162.63475 -1.8694953 -162.65091 -33.608074 172.17888
2756000000 -32.742107 30.53199 -1.8717898 -166.34419 -1.8690542 -166.32828 -33.420448 167.01859
2757000000 -32.625412 27.968187 -1.8716695 -170.03395 -1.8655548 -170.05455 -33.574112 158.50652
2758000000 -32.412544 27.232084 -1.8699535 -173.74643 -1.869993 -173.79115 -33.620644 153.16072
2759000000 -32.260124 25.667713 -1.8735719 -177.46274 -1.869512 -177.48647 -33.614597 145.63525
2760000000 -32.097816 24.815838 -1.8715118 178.80923 -1.869809 178.80937 -33.402851 138.17723
2761000000 -31.993647 23.570292 -1.8723304 175.10208 -1.8704226 175.07161 -33.409565 130.65042
2762000000 -31.818911 20.698126 -1.875517 171.37746 -1.872991 171.35832 -33.424988 124.06166
2763000000 -31.645847 21.366982 -1.8779336 167.6597 -1.8673114 167.64282 -33.287205 118.13594
2764000000 -31.530542 18.744293 -1.8744838 163.9308 -1.8744316 163.9521 -33.247665 111.1637
2765000000 -31.509293 17.229225 -1.8761059 160.2229 -1.871971 160.20909 -32.989063 103.99576
2766000000 -31.524483 15.679717 -1.8765972 156.52527 -1.8746636 156.50804 -33.060589 96.013405
2767000000 -31.436104 14.545378 -1.8736094 152.82114 -1.8748242 152.75708 -32.874355 89.504753
2768000000 -31.248146 13.502376 -1.8759392 149.07622 -1.8742347 149.06534 -32.800694 83.139954
2769000000 -31.209652 11.653326 -1.8744961 145.38582 -1.8763072 145.32014 -32.587891 76.320221
2770000000 -31.150265 8.5433769 -1.8762661 141.64317 -1.8745492 141.64142 -32.679661 70.358665
2771000000 -31.136713 8.4574146 -1.8781103 137.92943 -1.8717687 137.94847 -32.347099 63.26107
2772000000 -31.140186 6.4923363 -1.87646 134.21742 -1.8736149 134.19698 -32.103279 57.006428
2773000000 -31.044968 3.668169 -1.8752655 130.52293 -1.8748286 130.49765 -32.19212 50.222893
2774000000 -30.84671 3.7751019 -1.8779273 126.79877 -1.875291 126.77584 -31.95319 43.941021
2775000000 -30.842859 2.5187118 -1.8795458 123.09528 -1.874693 123.05338 -31.848089 36.908371
2776000000 -30.866341 0.19759728 -1.877319 119.36562 -1.876629 119.33499 -31.582779 31.551399
2777000000 -30.872828 -0.23033127 -1.878607 115.64638 -1.8790351 115.61716 -31.59959 24.833601
2778000000 -30.874603 -2.4038203 -1.8756597 111.93939 -1.8749757 111.90752 -31.257824 18.968531
2779000000 -30.789696 -4.7446251 -1.8809794 108.20689 -1.8744638 108.20452 -31.083572 13.984061
2780000000 -30.675201 -5.1059914 -1.8806126 104.51483 -1.876068 104.48618 -31.063734 6.2066841
2781000000 -30.828403 -6.4758544 -1.8789713 100.79781 -1.8819324 100.73912 -30.883575 1.6631712
2782000000 -30.479216 -8.2872 -1.8821288 97.092209 -1.8752228 97.054893 -30.793432 -3.6396899
2783000000 -30.604433 -9.4110422 -1.8799725 93.354607 -1.8750924 93.329567 -30.679382 -9.2372761
2784000000 -30.551794 -11.183738 -1.8794361 89.66111 -1.8782959 89.611023 -30.516066 -14.510254
2785000000 -30.564396 -12.586627 -1.880675 85.939514 -1.8779935 85.912064 -30.218315 -20.11935
2786000000 -30.486313 -14.250594 -1.8788559 82.226814 -1.8781347 82.193909 -30.105148 -24.990644
2787000000 -30.495869 -15.487561 -1.8802434 78.499092 -1.8804477 78.470963 -29.96763 -30.909496
2788000000 -30.391775 -16.584196 -1.8780717 74.772568 -1.8755461 74.745605 -29.974131 -35.648342
2789000000 -30.208504 -17.692575 -1.883723 71.071136 -1.8795031 71.05761 -29.868959 -40.503635
2790000000 -30.279118 -19.495934 -1.8810753 67.354286 -1.8796792 67.344803 -29.881233 -45.946842
2791000000 -30.308605 -20.794842 -1.88334 63.650875 -1.8799733 63.6049 -29.848753 -50.554459
2792000000 -30.404675 -22.229364 -1.8824179 59.932457 -1.878852 59.905384 -29.765228 -54.952728
2793000000 -30.257524 -23.093042 -1.8827726 56.206249 -1.8858086 56.205257 -29.717861 -59.916523
2794000000 -30.131977 -25.368273 -1.8816628 52.514217 -1.8818362 52.476135 -29.745821 -64.347687
2795000000 -30.231321 -25.150148 -1.8868693 48.79126 -1.885188 48.736862 -29.809696 -67.946808
2796000000 -30.139654 -27.005968 -1.8813299 45.053368 -1.8799018 45.057281 -30.095852 -74.526031
2797000000 -30.231203 -28.696587 -1.8840199 41.347244 -1.8840678 41.340755 -30.010973 -79.493378
2798000000 -30.265932 -29.795675 -1.8858458 37.633518 -1.8797318 37.611786 -30.123787 -84.091583
2799000000 -30.263582 -30.715347 -1.8848655 33.928055 -1.8813443 33.886368 -30.193056 -88.881401
2800000000 -30.308685 -32.591652 -1.879753 30.20838 -1.8803935 30.198671 -30.400286 -93.903458
2801000000 -30.303644 -33.627949 -1.8844477 26.464668 -1.8819013 26.493704 -30.545572 -98.281303
2802000000 -30.367437 -35.560673 -1.8863485 22.761351 -1.8830345 22.76417 -30.745522 -103.48663
2803000000 -30.438213 -36.625259 -1.8873506 19.062544 -1.8776711 19.033873 -30.97953 -109.79126
2804000000 -30.329809 -37.364746 -1.8864616 15.347184 -1.8834467 15.34759 -31.199457 -114.1284
2805000000 -30.447721 -38.366718 -1.8888687 11.615338 -1.8888723 11.606748 -31.270271 -118.08073
2806000000 -30.526754 -39.701565 -1.8857738 7.9238529 -1.8825561 7.9072742 -31.773836 -123.80226
2807000000 -30.529961 -40.422386 -1.8896106 4.1666112 -1.8833004 4.1683598 -32.005299 -129.97087
2808000000 -30.527285 -42.416004 -1.8909783 0.4555884 -1.8877312 0.46364295 -32.20311 -134.90688
2809000000 -30.615061 -43.775238 -1.8901122 -3.2480543 -1.8834819 -3.2343891 -32.461857 -141.60286
2810000000 -30.697206 -44.39378 -1.8883493 -6.9528308 -1.8844066 -6.9752851 -32.794712 -146.37227
2811000000 -30.883352 -47.10714 -1.8899478 -10.666959 -1.8861107 -10.681488 -32.958351 -152.26178
2812000000 -30.813498 -47.397011 -1.8892822 -14.382398 -1.8848468 -14.410403 -33.547535 -158.51472
2813000000 -30.963747 -49.351669 -1.8868585 -18.099134 -1.8880974 -18.135277 -33.461323 -164.73576
2814000000 -30.972019 -50.112404 -1.8880482 -21.834438 -1.8891426 -21.814426 -33.953068 -170.80609
2815000000 -31.254738 -50.929466 -1.8912596 -25.501307 -1.8902422 -25.54439 -34.030628 -177.61707
2816000000 -31.031227 -53.392273 -1.8889627 -29.239046 -1.8848907 -29.282087 -34.593258 177.00577
2817000000 -31.464468 -54.292957 -1.8885025 -32.982979 -1.8877419 -32.973858 -34.716526 169.8358
2818000000 -31.426008 -56.298416 -1.8906751 -36.65519 -1.887399 -36.700142 -34.992271 163.80139
2819000000 -31.525427 -57.452545 -1.8929304 -40.409927 -1.8886712 -40.400017 -35.365208 156.71826
2820000000 -31.613045 -57.628532 -1.8881122 -44.092274 -1.8854729 -44.131538 -35.674431 150.16635
2821000000 -31.745756 -60.512531 -1.8901422 -47.7864 -1.8891143 -47.83242 -36.239269 142.20651
2822000000 -31.795271 -61.52047 -1.8876624 -51.542385 -1.8884864 -51.564163 -36.394165 137.54265
2823000000 -31.849564 -63.975014 -1.8897073 -55.221073 -1.8907686 -55.312916 -36.734287 129.34637
2824000000 -31.917786 -64.879242 -1.8894463 -58.956089 -1.8917441 -58.962353 -36.751568 123.42709
2825000000 -32.109505 -66.246017 -1.889837 -62.692238 -1.8887583 -62.700993 -36.688915 117.53275
2826000000 -32.139675 -68.61631 -1.893733 -66.406654 -1.8904762 -66.436172 -37.30859 108.53896
2827000000 -32.184471 -68.891602 -1.890743 -70.107384 -1.8853382 -70.13015 -37.286526 100.85069
2828000000 -32.484951 -71.874092 -1.8878171 -73.821602 -1.8900802 -73.849152 -37.717297 93.308617
2829000000 -32.430073 -73.606003 -1.8930773 -77.53611 -1.8902485 -77.593689 -37.926243 85.956894
2830000000 -32.563599 -75.444908 -1.8911424 -81.26976 -1.8936741 -81.258331 -38.242775 76.875702
2831000000 -32.618324 -75.356316 -1.8894362 -84.976494 -1.8940197 -85.007584 -38.129528 70.65097
2832000000 -32.850506 -78.424736 -1.8929436 -88.696083 -1.889429 -88.733727 -38.436348 62.157501
2833000000 -33.306805 -79.336143 -1.8961558 -92.428337 -1.8911999 -92.410027 -38.422741 55.894722
2834000000 -33.150066 -82.495125 -1.8935733 -96.099251 -1.893265 -96.138771 -38.094227 47.832291
2835000000 -33.48447 -83.47995 -1.8938479 -99.853706 -1.8908023 -99.867264 -38.231201 41.463242
2836000000 -33.744171 -83.63044 -1.8957124 -103.56268 -1.8903054 -103.56113 -38.532352 35.316422
2837000000 -33.760361 -84.582314 -1.8967251 -107.23645 -1.8935685 -107.28382 -38.091019 28.180605
2838000000 -33.911674 -86.740799 -1.8934324 -110.97793 -1.8984216 -111.011 -37.784134 22.886053
2839000000 -34.026398 -88.491776 -1.8935704 -114.70634 -1.8918049 -114.724 -37.893826 17.090065
2840000000 -34.288967 -90.018127 -1.8928591 -118.41772 -1.8937911 -118.45034 -38.027771 9.0925188
2841000000 -34.474472 -90.196838 -1.8943032 -122.14225 -1.8939188 -122.15384 -38.380238 3.8326356
2842000000 -34.767052 -92.087631 -1.8989527 -125.82949 -1.8915265 -125.87939 -38.04932 1.8748263
2843000000 -35.137062 -93.755547 -1.8933227 -129.56039 -1.893787 -129.60693 -38.060028 -5.8110366
2844000000 -34.954872 -92.397308 -1.8986148 -133.27412 -1.8960785 -133.29146 -37.696709 -11.539499
2845000000 -35.375793 -96.032074 -1.8943844 -136.98524 -1.8957692 -137.02739 -37.547188 -13.599843
2846000000 -35.738537 -96.320816 -1.8988448 -140.72847 -1.8903514 -140.7287 -38.004498 -18.578344
2847000000 -36.227455 -98.607491 -1.897683 -144.43069 -1.8969085 -144.44206 -37.773003 -22.600258
2848000000 -36.619595 -100.05097 -1.8926946 -148.1442 -1.8944793 -148.16823 -38.126175 -25.581953
2849000000 -36.385769 -99.312111 -1.898717 -151.85629 -1.8963349 -151.89897 -38.090466 -28.478992
2850000000 -36.613533 -102.95728 -1.8954457 -155.55911 -1.8941966 -155.55048 -38.09856 -36.140198
2851000000 -37.366474 -101.52856 -1.8991195 -159.31194 -1.8955321 -159.29362 -38.451077 -35.654591
2852000000 -37.464909 -100.9607 -1.8971322 -162.98918 -1.8994505 -163.03424 -38.165161 -41.908421
2853000000 -38.013538 -104.27821 -1.8978469 -166.72714 -1.8967547 -166.72649 -38.549351 -42.850819
2854000000 -38.132355 -104.72202 -1.8977168 -170.46648 -1.8967398 -170.47163 -38.503502 -45.90427
2855000000 -38.743549 -107.29489 -1.9005299 -174.13237 -1.9006975 -174.17911 -38.883186 -48.979534
2856000000 -38.861412 -108.52187 -1.9004749 -177.89471 -1.8966482 -177.88197 -38.845421 -50.345238
2857000000 -39.532036 -107.34669 -1.8988942 178.43303 -1.9004709 178.37273 -39.01894 -51.541897
2858000000 -39.71088 -108.81301 -1.900537 174.6976 -1.9009092 174.67128 -39.34409 -54.092613
2859000000 -40.640995 -109.86092 -1.8976518 170.97449 -1.8972995 170.92786 -39.406631 -53.567123
2860000000 -41.269165 -112.29308 -1.8983696 167.28642 -1.8993896 167.2588 -40.304169 -57.40955
2861000000 -40.959137 -110.63985 -1.9054558 163.55222 -1.8952181 163.52142 -39.737175 -58.308678
2862000000 -42.298939 -109.56982 -1.9011377 159.83057 -1.8987927 159.81459 -40.458092 -61.167957
2863000000 -42.30632 -112.07217 -1.9033468 156.11784 -1.8965508 156.10497 -40.460522 -60.760517
2864000000 -43.586746 -115.97553 -1.9017799 152.40364 -1.8969735 152.37973 -40.276024 -61.45417
2865000000 -43.421974 -113.8016 -1.9005672 148.66753 -1.9004893 148.65041 -40.980537 -63.422932
2866000000 -44.18726 -116.27062 -1.9019154 144.98143 -1.902398 144.91377 -41.001842 -64.039246
2867000000 -45.153042 -113.59132 -1.9055157 141.2355 -1.9031494 141.22914 -41.467587 -67.773781
2868000000 -45.278015 -113.14234 -1.9046109 137.52933 -1.9022877 137.52403 -41.747787 -67.005981
2869000000 -46.19138 -116.46145 -1.9006184 133.82176 -1.9017465 133.83257 -41.530483 -65.654282
2870000000 -46.670902 -118.41468 -1.9048959 130.07521 -1.9024514 130.09015 -41.55566 -68.292252
2871000000 -46.076767 -115.53369 -1.9060159 126.38763 -1.9047827 126.37982 -42.370705 -70.22242
2872000000 -48.590225 -119.03619 -1.9061756 122.65479 -1.9049047 122.65506 -41.213715 -74.320137
2873000000 -48.744217 -111.93604 -1.9051471 118.93735 -1.9027779 118.94817 -42.026711 -75.267532
2874000000 -48.431133 -120.3899 -1.9083378 115.21371 -1.9077462 115.22598 -41.639519 -74.430267
2875000000 -50.465595 -118.3673 -1.902475 111.50613 -1.9067824 111.50107 -41.540474 -80.824982
2876000000 -50.135242 -120.89604 -1.9060584 107.83454 -1.9059364 107.80576 -42.128338 -81.504677
2877000000 -51.008629 -121.02065 -1.9082149 104.09122 -1.9036983 104.09487 -42.135624 -83.089508
2878000000 -52.600163 -128.02306 -1.9078145 100.37286 -1.9072566 100.34924 -41.114212 -86.180695
2879000000 -50.586159 -124.89564 -1.9058745 96.664551 -1.9039612 96.645844 -41.585003 -86.709145
2880000000 -51.581596 -122.52902 -1.9020571 92.93351 -1.9039772 92.914169 -41.989834 -90.155121
2881000000 -53.716377 -125.3867 -1.9071594 89.238419 -1.9095908 89.207657 -41.700657 -93.279655
2882000000 -54.224796 -133.72948 -1.9062692 85.503609 -1.9074996 85.471931 -41.985302 -97.393669
2883000000 -58.188763 -137.83803 -1.9081278 81.791023 -1.9035718 81.771034 -41.504742 -100.34869
2884000000 -55.111691 -140.18504 -1.9116864 78.063812 -1.9071112 78.061089 -42.557285 -107.74821
2885000000 -56.436935 -161.93927 -1.9056396 74.352547 -1.9071116 74.33094 -42.769032 -110.12663
2886000000 -57.634815 179.14592 -1.9103581 70.645416 -1.9107116 70.62989 -42.300743 -112.07886
2887000000 -59.838257 148.53877 -1.9080756 66.955177 -1.9094507 66.908615 -42.418056 -119.73954
2888000000 -58.70908 171.87718 -1.9082077 63.187447 -1.9085214 63.227123 -42.758934 -119.77097
2889000000 -59.29208 162.41618 -1.9117247 59.494015 -1.9100325 59.487846 -43.070889 -128.80392
2890000000 -56.987629 138.03239 -1.9112575 55.771912 -1.9121693 55.744579 -44.326534 -133.73108
2891000000 -54.832165 137.97516 -1.9148213 52.065693 -1.9056513 52.042713 -44.182873 -143.20601
2892000000 -54.723976 120.12049 -1.9144423 48.346241 -1.9045101 48.322819 -44.908981 -143.7047
2893000000 -53.174484 120.73467 -1.916615 44.619545 -1.905848 44.636688 -44.868958 -152.70035
2894000000 -54.415733 110.54837 -1.9156324 40.893276 -1.912433 40.94965 -46.168251 -157.91628
2895000000 -52.453224 98.256714 -1.9160951 37.196434 -1.9094459 37.166115 -46.585823 -172.52214
2896000000 -51.519505 92.654213 -1.9134685 33.477222 -1.9116298 33.467262 -47.780205 171.22156
2897000000 -49.233303 98.75705 -1.9131287 29.756365 -1.9112636 29.760757 -47.421974 158.11929
2898000000 -48.969246 92.88147 -1.9179522 26.036308 -1.9103628 26.032574 -48.752193 146.74939
2899000000 -48.173325 81.918541 -1.9131513 22.325542 -1.9145778 22.324759 -48.194767 127.5489
2900000000 -46.313713 90.751785 -1.9166114 18.629122 -1.9148277 18.600349 -46.965477 108.60639
2901000000 -45.867226 82.404602 -1.915432 14.906982 -1.9125593 14.891504 -45.870163 100.16823
2902000000 -45.332066 79.118561 -1.9168413 11.18558 -1.9142951 11.153633 -44.799236 90.66671
2903000000 -44.413723 80.695908 -1.9163913 7.4899983 -1.9143003 7.4268885 -43.017147 77.069092
2904000000 -42.733589 78.795738 -1.9134886 3.7519476 -1.9126945 3.726871 -41.890434 71.475189
2905000000 -42.656693 75.614555 -1.9168392 0.037132036 -1.9150876 0.010456479 -40.472122 64.766563
2906000000 -41.817429 76.698143 -1.9160681 -3.6687989 -1.9186133 -3.6498067 -40.324848 62.184311
2907000000 -41.219715 70.01889 -1.9188497 -7.3932562 -1.9146261 -7.42027 -39.12841 50.932209
2908000000 -41.278416 67.221924 -1.9221798 -11.125751 -1.918077 -11.094036 -38.339428 46.447727
2909000000 -39.905544 63.168793 -1.9178081 -14.829048 -1.9177449 -14.861826 -37.71595 39.002316
2910000000 -39.454887 64.038902 -1.9214094 -18.533958 -1.9194903 -18.550079 -36.549393 35.638958
2911000000 -38.638489 62.57988 -1.9213345 -22.247736 -1.9152172 -22.252443 -36.028473 31.428774
2912000000 -37.917091 59.931557 -1.9194143 -25.965824 -1.9155241 -25.996023 -35.538269 28.360062
2913000000 -37.385986 57.804245 -1.9182707 -29.695511 -1.9167386 -29.694279 -34.825184 21.436178
2914000000 -36.931351 58.969929 -1.9260905 -33.392845 -1.9201106 -33.405045 -34.533642 18.226381
2915000000 -36.552731 52.820934 -1.9207535 -37.12569 -1.9194908 -37.12957 -33.782516 14.321434
2916000000 -36.2453 51.980389 -1.9251323 -40.83316 -1.9179024 -40.832966 -33.462856 9.3842897
2917000000 -35.935192 48.744854 -1.9183879 -44.54517 -1.9252093 -44.550636 -33.032864 5.2089767
2918000000 -35.497112 47.72974 -1.9282739 -48.254143 -1.9196402 -48.28334 -32.743885 1.0147865
2919000000 -35.248512 44.033058 -1.927345 -51.972076 -1.9228319 -51.994743 -32.382305 -2.5719388
2920000000 -34.78894 41.876331 -1.9243104 -55.694862 -1.9240158 -55.721233 -32.031044 -7.7223129
2921000000 -34.519875 41.019203 -1.9213248 -59.404949 -1.9212228 -59.398945 -31.781404 -10.226485
2922000000 -34.023815 39.509541 -1.9239259 -63.117294 -1.9241242 -63.132881 -31.619585 -15.32506
2923000000 -33.956356 36.832241 -1.9248072 -66.825912 -1.924623 -66.862228 -31.354034 -19.99608
2924000000 -33.489544 36.640972 -1.9245201 -70.548027 -1.9223611 -70.577621 -31.053419 -24.411205
2925000000 -33.527657 32.940426 -1.9303349 -74.269997 -1.9203894 -74.301506 -30.93117 -27.291153
2926000000 -33.358902 31.744944 -1.9258142 -77.973763 -1.9228771 -78.001686 -30.787279 -31.748735
2927000000 -33.209618 30.543333 -1.9264181 -81.695541 -1.9273418 -81.708977 -30.566044 -36.685612
2928000000 -32.821178 27.670813 -1.9276655 -85.422066 -1.9298784 -85.439583 -30.554291 -42.249115
2929000000 -32.874046 25.038853 -1.9305953 -89.13266 -1.928726 -89.175026 -30.463642 -45.581692
2930000000 -32.686836 23.175562 -1.9263716 -92.832085 -1.9266245 -92.883492 -30.284004 -50.087784
2931000000 -32.54134 22.117455 -1.9262881 -96.530304 -1.9270743 -96.603325 -30.294981 -53.859165
2932000000 -32.311337 18.55238 -1.9291691 -100.25188 -1.9274015 -100.27121 -30.31785 -58.806896
2933000000 -32.350086 16.763165 -1.9299195 -103.99277 -1.9303361 -104.01379 -30.133362 -63.658607
2934000000 -32.156277 15.368836 -1.9296798 -107.73038 -1.9271203 -107.70359 -30.253811 -68.795197
2935000000 -31.972452 13.69362 -1.9263535 -111.42962 -1.9295259 -111.43324 -30.210203 -73.413719
2936000000 -31.995028 11.875412 -1.9357924 -115.14642 -1.9291763 -115.12098 -30.152657 -77.222717
2937000000 -31.970201 10.466677 -1.9346999 -118.8367 -1.9286879 -118.86597 -29.879282 -82.202126
2938000000 -31.834936 8.8080349 -1.9308881 -122.56943 -1.9309474 -122.5701 -30.302477 -87.050491
2939000000 -31.766039 5.9687295 -1.9300523 -126.28191 -1.9308234 -126.29132 -30.150763 -92.24205
2940000000 -31.900166 2.9222023 -1.9340577 -129.97934 -1.9272983 -129.98242 -30.308731 -96.513596
2941000000 -31.776531 1.803069 -1.9328921 -133.69664 -1.9286214 -133.72183 -30.184406 -101.69335
2942000000 -31.555227 0.81439108 -1.9338093 -137.44753 -1.9298278 -137.4231 -30.43375 -106.94888
2943000000 -31.849119 -0.50918525 -1.9301916 -141.15689 -1.9242532 -141.14975 -30.596636 -111.52701
2944000000 -31.529379 -2.2578926 -1.933823 -144.85164 -1.9332852 -144.86861 -30.637428 -115.76674
2945000000 -31.402325 -3.9633992 -1.9377773 -148.55659 -1.9381814 -148.60016 -30.808462 -120.40211
2946000000 -31.524736 -6.0758672 -1.9345115 -152.27766 -1.9356117 -152.29132 -30.915873 -125.36046
2947000000 -31.424345 -8.068758 -1.9370207 -155.9812 -1.9310031 -156.03615 -31.043232 -130.39754
2948000000 -31.411129 -9.043623 -1.9355862 -159.70966 -1.9367392 -159.73116 -31.2414 -135.32796
2949000000 -31.443277 -10.050315 -1.9313807 -163.42578 -1.9324676 -163.45596 -31.5326 -142.73375
2950000000 -31.336733 -12.7063 -1.9333951 -167.12422 -1.937201 -167.18016 -31.691044 -147.22008
2951000000 -31.27046 -13.599474 -1.9386785 -170.86505 -1.9334836 -170.87369 -32.03717 -152.29892
2952000000 -31.227404 -15.252745 -1.9368318 -174.55479 -1.9357431 -174.62064 -32.179401 -156.61798
2953000000 -31.2339 -16.340328 -1.936916 -178.28918 -1.9319025 -178.30118 -32.513508 -163.97005
2954000000 -31.196104 -17.819466 -1.9380357 177.98167 -1.9321924 177.98668 -32.793545 -169.84949
2955000000 -31.435707 -19.186262 -1.9356073 174.28639 -1.9389265 174.30521 -32.677048 -176.58992
2956000000 -31.308626 -20.516396 -1.9366961 170.56488 -1.9363943 170.53755 -33.333057 177.34659
2957000000 -31.249868 -21.545366 -1.9395471 166.85774 -1.9379536 166.8403 -33.660786 170.47404
2958000000 -31.283892 -23.286951 -1.9399488 163.15689 -1.9341681 163.11996 -33.983059 162.13885
2959000000 -31.229834 -23.274151 -1.9384568 159.4474 -1.9377959 159.39528 -34.316368 155.55968
2960000000 -31.225906 -24.55966 -1.9374622 155.70326 -1.9392618 155.68555 -34.674107 147.16432
2961000000 -31.265064 -25.475021 -1.9393735 152.02565 -1.9375217 151.96588 -34.891254 138.83366
2962000000 -31.223719 -27.12644 -1.9423525 148.26393 -1.9367688 148.23935 -35.124256 131.79144
2963000000 -31.083302 -28.644041 -1.9394977 144.54323 -1.9363968 144.54053 -35.262112 122.22969
2964000000 -31.247459 -28.915258 -1.9420251 140.86172 -1.9399261 140.81581 -35.293831 115.09303
2965000000 -31.27223 -30.545208 -1.9406217 137.11565 -1.9406739 137.12282 -35.27359 105.70914
2966000000 -31.253584 -30.970646 -1.9403875 133.41965 -1.9394819 133.40881 -35.264439 96.69133
2967000000 -31.216967 -31.997135 -1.9403377 129.6983 -1.9380232 129.6768 -35.244038 88.375214
2968000000 -31.413277 -33.125553 -1.945982 125.99202 -1.9402378 125.95635 -34.957611 79.461349
2969000000 -31.321871 -34.467049 -1.9440295 122.26724 -1.9384233 122.24702 -34.789093 71.555183
2970000000 -31.300922 -34.890244 -1.93946 118.52931 -1.9365985 118.53885 -34.67495 63.5634
2971000000 -31.294273 -35.798008 -1.9413551 114.84582 -1.942372 114.84858 -34.184273 57.728474
2972000000 -31.307018 -35.905922 -1.9416482 111.15296 -1.9386922 111.08044 -34.222115 49.761353
2973000000 -31.363651 -36.801876 -1.9444364 107.38531 -1.9405595 107.37007 -33.946487 42.739975
2974000000 -31.211514 -38.133781 -1.9406121 103.68039 -1.942221 103.6605 -33.714272 36.139526
2975000000 -31.277475 -39.628941 -1.9418539 99.996407 -1.9441562 99.937256 -33.253033 29.861704
2976000000 -31.272251 -40.904682 -1.9438864 96.25238 -1.9411581 96.224899 -33.239151 23.871996
2977000000 -31.345217 -41.535336 -1.9456311 92.554016 -1.9390984 92.533249 -32.959564 17.317551
2978000000 -31.346437 -43.075592 -1.9445248 88.84565 -1.9401644 88.817474 -32.600594 11.821579
2979000000 -31.291313 -43.34742 -1.9455168 85.12693 -1.9413617 85.11512 -32.47971 6.3673553
2980000000 -31.238861 -44.667866 -1.9431903 81.390472 -1.9443036 81.382027 -32.478992 1.5801591
2981000000 -31.387699 -46.482327 -1.9492548 77.666161 -1.9427077 77.65728 -32.114231 -4.4612803
2982000000 -31.337357 -47.260078 -1.9478909 74.000031 -1.9458021 73.951485 -32.051357 -9.2936907
2983000000 -31.543247 -48.295891 -1.9442979 70.267799 -1.9456251 70.198997 -31.802111 -14.763297
2984000000 -31.389297 -49.814144 -1.9482087 66.574921 -1.9424388 66.534943 -31.807636 -20.824486
2985000000 -31.519981 -52.208401 -1.9478974 62.84169 -1.942368 62.807865 -31.738779 -24.33511
2986000000 -31.509411 -53.309795 -1.9465327 59.122795 -1.9444543 59.105602 -31.709124 -28.993464
2987000000 -31.500191 -54.799751 -1.9490123 55.375233 -1.9466798 55.340275 -31.86417 -33.280521
2988000000 -31.625011 -57.055595 -1.9483777 51.655281 -1.9472176 51.677715 -31.528172 -39.01683
2989000000 -31.629925 -58.643795 -1.949258 47.987347 -1.9444454 47.931698 -31.5434 -43.349449
2990000000 -31.608273 -59.452869 -1.9467673 44.258389 -1.9476278 44.22298 -31.494219 -47.849403
2991000000 -31.750238 -61.253662 -1.9496611 40.547218 -1.9429396 40.493462 -31.668783 -53.130978
2992000000 -31.935442 -62.570789 -1.946059 36.80801 -1.9422437 36.805611 -31.627338 -57.121151
2993000000 -31.987137 -64.957428 -1.9493334 33.124905 -1.9458771 33.084545 -31.733784 -61.157734
2994000000 -32.057796 -65.758408 -1.9475099 29.398397 -1.9490796 29.339262 -31.853224 -65.660461
2995000000 -32.127872 -69.362068 -1.9465201 25.663933 -1.9450364 25.654451 -31.804472 -69.77121
2996000000 -32.273605 -69.792725 -1.9476168 21.949177 -1.9457827 21.930939 -32.157928 -74.445969
2997000000 -32.249111 -71.174957 -1.9482087 18.236101 -1.9467195 18.218409 -32.065689 -77.651978
2998000000 -32.280666 -73.079933 -1.9478014 14.523439 -1.9469615 14.519259 -32.207985 -82.092171
2999000000 -32.42099 -74.895805 -1.9530182 10.823021 -1.946891 10.811229 -32.501003 -85.769073
3000000000 -32.777668 -76.504318 -1.9529525 7.067296 -1.9470624 7.0609894 -32.777634 -89.18013
3001000000 -32.934746 -79.308952 -1.9510462 3.3772705 -1.9485047 3.3560691 -33.090572 -94.660606
3002000000 -33.070885 -79.561554 -1.9509233 -0.32499465 -1.9469372 -0.37096882 -33.033855 -97.948311
3003000000 -33.291611 -82.488594 -1.946987 -4.056953 -1.9465927 -4.0693202 -33.583302 -100.31931
3004000000 -33.210217 -83.575912 -1.951712 -7.7780771 -1.9490302 -7.7811069 -33.642338 -104.90842
3005000000 -33.632725 -85.016945 -1.9529063 -11.4693 -1.9475962 -11.493569 -34.083702 -106.26657
3006000000 -33.816673 -85.883553 -1.9506897 -15.177778 -1.9484142 -15.211735 -34.381897 -111.0772
3007000000 -34.038254 -88.341545 -1.9497017 -18.902794 -1.9474418 -18.934473 -35.13464 -115.08041
3008000000 -34.130413 -89.495041 -1.9538474 -22.63645 -1.9507626 -22.661631 -35.437298 -117.74059
3009000000 -34.676022 -90.770546 -1.9523969 -26.340397 -1.9486182 -26.330956 -36.011101 -121.68911
3010000000 -34.912273 -91.11039 -1.9545019 -30.048302 -1.9506747 -30.098076 -36.522438 -122.75947
3011000000 -35.165169 -89.67601 -1.9496384 -33.760254 -1.9504187 -33.818897 -37.525497 -124.25878
3012000000 -35.404282 -92.795288 -1.951749 -37.492218 -1.955242 -37.535061 -37.989006 -125.41859
3013000000 -35.900112 -94.711212 -1.9520642 -41.201122 -1.9508917 -41.234406 -39.056118 -131.02158
3014000000 -36.249077 -94.742363 -1.9537216 -44.930233 -1.9518938 -44.954006 -40.00885 -134.15115
3015000000 -36.366577 -96.080986 -1.9561143 -48.627254 -1.9529618 -48.660923 -40.829258 -134.00938
3016000000 -37.075699 -95.285294 -1.9529334 -52.366463 -1.9531152 -52.403278 -41.535275 -135.37025
3017000000 -37.469475 -94.809746 -1.952209 -56.071388 -1.9525625 -56.066612 -43.556347 -137.2373
3018000000 -37.987217 -94.476685 -1.9535605 -59.781128 -1.9485825 -59.829868 -44.986237 -127.2694
3019000000 -38.362309 -97.755104 -1.9536234 -63.498131 -1.9546671 -63.551231 -46.265808 -136.93494
3020000000 -38.48452 -94.132011 -1.9538207 -67.212219 -1.9535527 -67.255676 -47.502163 -123.17433
3021000000 -39.117176 -94.416084 -1.9543785 -70.934685 -1.952185 -70.929222 -49.575096 -114.82346
3022000000 -39.980293 -96.062408 -1.9563849 -74.642715 -1.9513302 -74.670845 -51.364117 -90.196312
3023000000 -40.000469 -92.84864 -1.9557967 -78.387314 -1.9559925 -78.392639 -51.734673 -94.112846
3024000000 -40.964821 -90.103806 -1.9565587 -82.091156 -1.9533421 -82.122688 -49.892078 -74.746445
3025000000 -40.903973 -88.530472 -1.9553647 -85.787605 -1.9591769 -85.839462 -49.763443 -53.514416
3026000000 -41.016533 -84.457672 -1.9548953 -89.529495 -1.9532109 -89.544197 -48.057873 -48.394672
3027000000 -41.647812 -81.973061 -1.958975 -93.257301 -1.9581679 -93.240837 -46.265484 -48.267883
3028000000 -42.045143 -76.564537 -1.9574894 -96.925743 -1.9526668 -96.987778 -45.81081 -48.694244
3029000000 -41.946117 -77.301826 -1.9581138 -100.66042 -1.9529834 -100.7107 -44.470325 -48.774086
3030000000 -42.179466 -77.019249 -1.9578209 -104.37869 -1.9552116 -104.40181 -43.659397 -43.83939
3031000000 -42.097733 -74.002441 -1.9614934 -108.09983 -1.9568702 -108.10479 -42.341179 -41.4706
3032000000 -42.269798 -69.540092 -1.957968 -111.7978 -1.9559563 -111.84613 -41.782204 -45.874992
3033000000 -42.654228 -72.832031 -1.9617352 -115.53725 -1.95494 -115.56168 -41.504822 -47.363438
3034000000 -41.71933 -69.921478 -1.9595399 -119.2287 -1.9530685 -119.28416 -41.360424 -50.460915
3035000000 -41.811924 -66.80426 -1.9602439 -122.96118 -1.9587359 -122.97216 -40.909786 -50.498108
3036000000 -42.279961 -67.335983 -1.9606504 -126.69096 -1.9610193 -126.69542 -40.851486 -55.339024
3037000000 -41.971142 -68.152512 -1.9579667 -130.40176 -1.9550821 -130.40044 -40.327831 -54.099289
3038000000 -41.693932 -67.500816 -1.9641744 -134.10046 -1.9613092 -134.13177 -40.280884 -59.466183
3039000000 -41.732166 -70.904793 -1.9641614 -137.82773 -1.9596634 -137.87744 -40.222931 -60.508743
3040000000 -41.587032 -68.524208 -1.9591647 -141.5484 -1.9602281 -141.57626 -39.640285 -60.167873
3041000000 -41.713474 -67.578743 -1.9629327 -145.25774 -1.9610704 -145.27925 -39.692986 -65.381523
3042000000 -41.741955 -72.908234 -1.96008 -148.99341 -1.9617369 -148.97351 -39.582092 -65.739594
3043000000 -41.521488 -71.265823 -1.963665 -152.71281 -1.9646704 -152.71449 -39.492985 -71.153458
3044000000 -41.570499 -75.958885 -1.9619821 -156.40623 -1.9593505 -156.41867 -39.860126 -69.610504
3045000000 -41.506882 -73.903976 -1.9669169 -160.13257 -1.9599817 -160.15251 -40.077179 -75.964104
3046000000 -41.73008 -79.229668 -1.9663371 -163.84682 -1.9628965 -163.83212 -39.721828 -73.954361
3047000000 -41.992039 -79.274696 -1.96495 -167.55484 -1.9591033 -167.56665 -39.786251 -75.589775
3048000000 -41.886982 -82.067268 -1.9631857 -171.27119 -1.9634221 -171.28218 -39.768227 -77.755028
3049000000 -43.038231 -84.664482 -1.9624479 -175.01984 -1.9638321 -175.05461 -40.699314 -81.840004
3050000000 -42.221069 -89.564926 -1.9622002 -178.72879 -1.9612477 -178.68752 -40.518024 -80.040962
3051000000 -42.614006 -88.510254 -1.9684325 177.59602 -1.9602427 177.53705 -40.985092 -80.972626
3052000000 -42.47551 -86.391296 -1.9648926 173.86139 -1.9662122 173.85907 -40.450764 -80.554184
3053000000 -42.605236 -92.25193 -1.9667337 170.17358 -1.9676803 170.15625 -40.33638 -79.542854
3054000000 -43.273365 -96.435188 -1.9666926 166.43053 -1.9633342 166.40698 -40.683136 -81.178291
3055000000 -44.011009 -99.528381 -1.9665048 162.71725 -1.9630845 162.71759 -41.408802 -81.014214
3056000000 -43.945488 -98.92141 -1.9693364 159.01691 -1.9644966 158.98587 -40.762508 -78.339325
3057000000 -44.649498 -101.29038 -1.960968 155.29924 -1.968022 155.25102 -41.333111 -80.116837
3058000000 -44.557499 -99.147491 -1.9650741 151.56366 -1.9658133 151.55789 -40.853973 -73.764153
3059000000 -45.219696 -102.16787 -1.9669955 147.86523 -1.9667979 147.85194 -40.884697 -77.896614
3060000000 -45.558178 -110.5563 -1.9687299 144.15663 -1.9644657 144.12439 -40.700211 -76.348961
3061000000 -46.903622 -109.63175 -1.9634302 140.44215 -1.9644511 140.41989 -40.891708 -73.333496
3062000000 -47.926949 -116.06726 -1.9708407 136.7132 -1.9657472 136.68709 -40.461372 -73.002304
3063000000 -48.142159 -118.83817 -1.9730864 132.99493 -1.9641414 132.98106 -39.920361 -73.956635
3064000000 -49.619228 -112.82011 -1.9716415 129.27727 -1.9665904 129.26083 -39.602112 -72.951042
3065000000 -51.429401 -122.16602 -1.9705151 125.57237 -1.968804 125.55763 -39.517273 -74.899994
3066000000 -52.481098 -119.27646 -1.9696407 121.84887 -1.9694965 121.81472 -39.165199 -71.95945
3067000000 -55.460213 -135.9796 -1.9693279 118.12262 -1.9711989 118.13159 -38.997326 -75.155037
3068000000 -57.142895 -118.22266 -1.9692644 114.41644 -1.9669923 114.40986 -38.648167 -76.282433
3069000000 -65.769791 -139.77759 -1.9674633 110.69769 -1.9693596 110.67684 -38.168308 -76.937653
3070000000 -70.466309 -17.69945 -1.9691486 106.99138 -1.9691377 106.97363 -38.252285 -79.067284
3071000000 -59.392197 86.063019 -1.9693776 103.27389 -1.9705209 103.26109 -37.457714 -79.558792
3072000000 -58.702583 74.684181 -1.9715625 99.56662 -1.9672797 99.543221 -37.653404 -80.888023
3073000000 -58.405495 66.283989 -1.9663177 95.832588 -1.9663315 95.821373 -37.022957 -82.948174
3074000000 -52.000217 63.990814 -1.9752576 92.119484 -1.9715185 92.10585 -37.393677 -87.825302
3075000000 -49.381733 49.891972 -1.9761001 88.409386 -1.9714056 88.373108 -36.874313 -89.626755
3076000000 -48.722797 51.696896 -1.9740989 84.691925 -1.9724357 84.686951 -36.81702 -91.713676
3077000000 -47.936367 51.345276 -1.9726428 80.970192 -1.97349 80.950485 -36.819 -96.449966
3078000000 -46.274235 50.575153 -1.9748493 77.255089 -1.9686725 77.256996 -36.626568 -98.851128
3079000000 -45.478577 45.993542 -1.9762841 73.532448 -1.9728242 73.518333 -36.478596 -102.69836
3080000000 -44.533344 48.100937 -1.9732927 69.815315 -1.9707503 69.819 -36.526962 -105.61462
3081000000 -43.909554 42.212475 -1.9776957 66.116669 -1.9701109 66.098984 -36.47427 -109.95282
3082000000 -42.968418 42.723183 -1.9776925 62.40575 -1.9709642 62.374157 -36.71645 -111.8307
3083000000 -42.217014 38.759117 -1.9747335 58.669289 -1.9726741 58.674427 -36.373993 -116.51352
3084000000 -41.643143 35.690945 -1.9713991 54.976089 -1.973824 54.946358 -36.582626 -122.12415
3085000000 -41.792168 34.848381 -1.9747111 51.254543 -1.9717118 51.228374 -36.430389 -125.06817
3086000000 -41.07933 29.793739 -1.9787567 47.548378 -1.9755147 47.508614 -37.066967 -129.37796
3087000000 -40.684353 32.483669 -1.9737713 43.802906 -1.9738562 43.817554 -36.897102 -134.62547
3088000000 -40.236507 33.285774 -1.9774778 40.100529 -1.9745891 40.087513 -37.215752 -138.76569
3089000000 -40.256657 28.48984 -1.982114 36.401459 -1.9753858 36.358284 -37.397331 -144.7287
3090000000 -39.750694 30.372581 -1.9765534 32.662022 -1.9755616 32.656483 -37.26981 -148.04253
3091000000 -39.490887 26.460531 -1.9803995 28.965532 -1.9773064 28.940987 -37.763508 -155.56305
3092000000 -39.479626 25.646484 -1.9812454 25.227076 -1.9806805 25.209532 -38.373341 -160.64786
3093000000 -39.514618 25.208345 -1.9756138 21.532202 -1.9783925 21.540318 -38.364677 -166.8098
3094000000 -39.629375 23.816736 -1.9816053 17.794628 -1.9765497 17.802881 -39.062943 -172.09013
3095000000 -39.148502 21.691883 -1.9790825 14.098863 -1.9757395 14.086765 -39.150837 178.69655
3096000000 -38.921329 21.905851 -1.9832331 10.37745 -1.9750606 10.337596 -39.441685 171.07816
3097000000 -39.025707 21.749729 -1.9821066 6.6833515 -1.9784015 6.6391878 -39.949833 161.58817
3098000000 -38.64352 22.662119 -1.9846859 2.9641633 -1.9794083 2.9029298 -40.031815 153.32124
3099000000 -38.383781 17.901295 -1.9804236 -0.78110236 -1.9816939 -0.77850491 -40.584293 145.49339
3100000000 -38.358688 17.207079 -1.9861652 -4.4901619 -1.978337 -4.4962134 -40.693085 136.17743
3101000000 -38.447285 18.503828 -1.9824203 -8.1940203 -1.981774 -8.2308388 -40.870968 126.75858
3102000000 -38.189262 18.321953 -1.9800596 -11.928421 -1.9777814 -11.908927 -40.820919 115.84859
3103000000 -37.930084 20.27529 -1.9836599 -15.628619 -1.9819463 -15.657314 -40.552841 102.90475
3104000000 -37.86972 17.253952 -1.9858335 -19.339676 -1.9795443 -19.35742 -40.381836 92.841507
3105000000 -37.679897 18.600309 -1.9822966 -23.058661 -1.9798673 -23.096918 -40.216774 80.22892
3106000000 -37.425625 17.12781 -1.9805207 -26.795235 -1.9864413 -26.778357 -39.346951 70.968361
3107000000 -37.425983 13.751299 -1.9824415 -30.51676 -1.9846601 -30.495146 -39.535763 61.766705
3108000000 -37.227795 14.079582 -1.9870548 -34.225571 -1.9803818 -34.248161 -38.664261 56.583622
3109000000 -37.092476 14.69144 -1.9802899 -37.943417 -1.9852284 -37.9487 -38.090488 44.364025
3110000000 -36.632771 12.717935 -1.9848187 -41.660679 -1.980181 -41.663067 -37.566719 38.313046
3111000000 -36.630005 12.859192 -1.9864343 -45.374691 -1.9838123 -45.367123 -37.221371 28.968458
3112000000 -36.526356 10.53428 -1.9875129 -49.083626 -1.9835062 -49.104599 -36.20459 23.879751
3113000000 -36.167103 11.594543 -1.9892626 -52.76659 -1.9834992 -52.809147 -35.724998 17.610163
3114000000 -35.986378 10.646695 -1.9848175 -56.535622 -1.9823436 -56.52631 -35.15041 12.793342
3115000000 -36.040054 9.3441687 -1.9867746 -60.232159 -1.9857326 -60.239647 -34.858891 5.2611513
3116000000 -35.422493 9.2123423 -1.990626 -63.923107 -1.9833975 -63.971169 -34.289036 0.29263911
3117000000 -35.290771 6.2829185 -1.9868225 -67.632675 -1.9834096 -67.671288 -33.680092 -4.3334889
3118000000 -35.114624 5.8316431 -1.9893481 -71.377357 -1.9850289 -71.389503 -33.391922 -8.8306122
3119000000 -34.79995 4.7355132 -1.9914939 -75.08606 -1.9854627 -75.106499 -33.026543 -14.493153
3120000000 -34.560188 4.2829199 -1.9898806 -78.784309 -1.9860433 -78.803932 -32.651989 -19.072769
3121000000 -34.351185 2.3931792 -1.9887686 -82.517685 -1.9816927 -82.54435 -32.460533 -24.938017
3122000000 -34.279213 1.3957077 -1.994264 -86.222076 -1.9904172 -86.242653 -31.943615 -29.204523
3123000000 -33.961098 0.072947852 -1.9884646 -89.931015 -1.9892855 -89.970284 -31.888277 -33.379074
3124000000 -34.000809 -2.1051521 -1.9870065 -93.659164 -1.9879441 -93.699425 -31.661051 -38.011181
3125000000 -33.724632 -1.8175482 -1.9895519 -97.397423 -1.9896895 -97.425735 -31.459211 -43.312656
3126000000 -33.421501 -4.3902869 -1.9905261 -101.1044 -1.9919034 -101.11318 -31.370813 -46.1679
3127000000 -33.282509 -5.0793304 -1.9949741 -104.80953 -1.9886868 -104.83649 -31.140711 -51.112164
3128000000 -33.211159 -6.1340241 -1.9962415 -108.5147 -1.9873861 -108.55102 -30.99259 -55.680275
3129000000 -33.004929 -8.3771009 -1.9901766 -112.23211 -1.9903342 -112.27213 -30.841217 -59.988403
3130000000 -32.718903 -10.011584 -1.9956942 -115.94246 -1.990477 -115.98041 -30.849817 -65.362869
3131000000 -32.972763 -11.870033 -1.9981364 -119.65854 -1.9882244 -119.66183 -30.755447 -68.132637
3132000000 -32.799545 -12.985843 -1.9929724 -123.37252 -1.992134 -123.43663 -30.743929 -73.883224
3133000000 -32.68856 -14.693247 -1.9941665 -127.08204 -1.993824 -127.093 -30.625011 -77.663414
3134000000 -32.578751 -14.934006 -1.9951729 -130.78058 -1.991953 -130.8392 -30.727859 -82.465782
3135000000 -32.403069 -16.296358 -1.99707 -134.52306 -1.9919227 -134.54054 -30.706179 -86.130516
3136000000 -32.427406 -18.355778 -1.9944267 -138.24455 -1.9919665 -138.26106 -30.898703 -90.9515
3137000000 -32.35461 -19.764448 -1.9961041 -141.94226 -1.9967871 -141.9632 -30.94483 -95.819679
3138000000 -32.467136 -20.90589 -1.9939437 -145.66031 -1.9964775 -145.69571 -30.926695 -100.80797
3139000000 -32.365833 -22.923391 -1.9997996 -149.41951 -1.9898486 -149.39851 -31.233402 -104.67223
3140000000 -32.548054 -23.265587 -1.9946172 -153.10175 -1.9929998 -153.10658 -31.196058 -109.66494
3141000000 -32.393642 -24.656315 -1.9988078 -156.83733 -1.9936216 -156.85515 -31.668104 -113.55174
3142000000 -32.508118 -26.403721 -1.9971555 -160.52707 -1.9923781 -160.54732 -31.605417 -118.22099
3143000000 -32.54348 -27.186666 -1.9967641 -164.2534 -1.9958209 -164.26801 -31.962206 -124.07137
3144000000 -32.503124 -29.277029 -1.9989805 -167.95023 -1.9938842 -168.00563 -32.099766 -129.17398
3145000000 -32.634068 -29.497208 -1.9974651 -171.69267 -1.9972306 -171.69127 -32.616005 -133.66182
3146000000 -32.714546 -32.822838 -1.9983209 -175.36801 -1.998992 -175.41435 -32.767323 -139.52357
3147000000 -32.943352 -33.628399 -1.9961919 -179.13066 -1.9948086 -179.14247 -33.255505 -145.38535
3148000000 -32.873062 -33.820923 -1.9969432 177.18898 -1.9987869 177.14522 -33.540493 -149.23256
3149000000 -33.087021 -35.54488 -1.9970244 173.43463 -1.9995658 173.45049 -33.961552 -154.104
3150000000 -33.254498 -36.341961 -2.0006776 169.73466 -1.9992504 169.72382 -34.191166 -161.39566
3151000000 -33.376194 -36.674686 -2.0013683 166.034 -1.9956052 165.99371 -35.018192 -167.88718
3152000000 -33.455482 -38.454903 -1.9993578 162.31224 -1.9973865 162.28268 -35.369038 -174.92046
3153000000 -33.645561 -38.446472 -1.9983308 158.61081 -1.998857 158.57581 -35.845539 178.08305
3154000000 -33.753704 -39.622543 -2.0006819 154.86339 -1.9974434 154.866 -36.287376 172.86186
3155000000 -33.878956 -40.651596 -1.997548 151.1799 -2.0008373 151.15382 -37.129135 162.99857
3156000000 -33.969616 -40.0159 -2.0022564 147.43095 -1.9982435 147.43202 -37.85714 157.07718
3157000000 -33.794621 -41.103466 -2.0005062 143.70581 -1.9969928 143.71938 -38.507023 145.64592
3158000000 -34.14325 -41.947838 -2.002233 140.01662 -1.9989439 140.01141 -38.866314 137.56718
3159000000 -34.39069 -41.554485 -2.0040588 136.30441 -1.9991511 136.28551 -39.349293 126.8398
3160000000 -34.703739 -41.334499 -2.0018029 132.56432 -1.998022 132.58826 -39.984615 116.12627
3161000000 -34.602161 -39.811104 -2.0037405 128.86273 -1.9972991 128.84444 -40.035896 102.03677
3162000000 -34.655602 -41.992153 -2.0058234 125.15794 -2.0018637 125.11845 -40.146996 90.223534
3163000000 -34.759411 -41.513542 -2.0014093 121.44096 -2.0076921 121.39835 -39.956524 77.206612
3164000000 -34.870506 -41.457729 -2.0021961 117.70811 -2.0022562 117.70006 -40.021442 61.88353
3165000000 -34.666969 -40.113506 -2.0033596 114.01762 -2.0010233 113.99741 -39.310768 53.137356
3166000000 -34.653439 -39.887421 -2.0028317 110.29064 -2.0025525 110.25788 -38.905128 41.766254
3167000000 -34.779583 -39.061943 -2.0023797 106.5769 -2.0021794 106.53076 -38.164173 31.985943
3168000000 -34.592869 -39.298008 -2.0038395 102.84789 -2.0041025 102.82043 -37.256317 22.23947
3169000000 -34.629913 -38.860924 -2.0045242 99.145439 -2.0053489 99.147964 -36.862419 14.266709
3170000000 -34.586063 -37.747601 -2.0024629 95.395561 -2.0025468 95.415009 -35.996395 6.5162854
3171000000 -34.384624 -37.437771 -2.002491 91.725197 -2.0035481 91.684639 -35.640427 0.76111555
3172000000 -33.931946 -38.27409 -2.0031712 88.004303 -1.9968916 87.973694 -34.991695 -6.472837
3173000000 -34.178535 -36.523464 -2.0104871 84.287659 -2.0061698 84.248329 -34.594837 -12.460672
3174000000 -33.843937 -37.568588 -2.0049961 80.573456 -2.0031691 80.550598 -33.940643 -18.363567
3175000000 -33.678356 -37.867733 -2.0065999 76.850502 -2.0069129 76.809494 -33.473179 -24.055738
3176000000 -33.515579 -37.597046 -2.008584 73.123344 -2.0014603 73.101646 -33.167282 -29.750473
3177000000 -33.160786 -38.054432 -2.0093637 69.411522 -2.0066919 69.409088 -32.715183 -34.528557
3178000000 -33.078121 -38.907051 -2.0078259 65.673523 -2.0080361 65.695656 -32.366295 -39.61412
3179000000 -32.962418 -40.168396 -2.0065675 61.953197 -2.0071969 61.982834 -31.913542 -44.201553
3180000000 -32.696423 -40.363586 -2.0095594 58.259003 -2.0072951 58.250355 -31.802059 -48.4291
3181000000 -32.370743 -40.479401 -2.009676 54.566483 -2.0058968 54.502876 -31.545956 -53.600018
3182000000 -32.436073 -41.442673 -2.0123694 50.836586 -2.0081241 50.822929 -31.167206 -57.371841
3183000000 -32.171055 -42.241871 -2.0092785 47.122105 -2.006602 47.084583 -31.085909 -62.384525
3184000000 -32.032135 -42.34444 -2.0114193 43.387215 -2.0120146 43.370361 -30.815088 -66.704727
3185000000 -31.672699 -45.16399 -2.0122232 39.732704 -2.0073745 39.660389 -30.62538 -71.261742
3186000000 -31.772623 -45.071247 -2.0109086 35.98336 -2.0096247 35.960819 -30.392591 -75.704483
3187000000 -31.329418 -47.609882 -2.0158148 32.267479 -2.0117447 32.256344 -30.547588 -79.861557
3188000000 -31.370064 -49.264702 -2.0153861 28.534788 -2.0082605 28.54217 -30.226309 -82.978668
3189000000 -31.397001 -50.929417 -2.014333 24.813265 -2.0158608 24.819723 -30.267614 -88.248352
3190000000 -31.159382 -52.828503 -2.0125029 21.119802 -2.0100696 21.105659 -30.169088 -92.000793
3191000000 -31.166697 -53.363922 -2.0149057 17.377268 -2.0143862 17.401144 -30.10004 -96.542343
3192000000 -31.122313 -56.051434 -2.0176923 13.688306 -2.0089433 13.68251 -30.29319 -99.68499
3193000000 -30.956175 -58.051178 -2.0170219 9.9804001 -2.0134704 9.9704914 -30.271561 -104.44432
3194000000 -30.813948 -60.09951 -2.0159185 6.2516484 -2.0115542 6.2560139 -30.325069 -108.07579
3195000000 -30.962641 -62.053753 -2.016309 2.5700841 -2.0167065 2.5404606 -30.319279 -111.40594
3196000000 -31.030272 -63.209728 -2.0159132 -1.182116 -2.0165312 -1.1933427 -30.319885 -116.67639
3197000000 -30.994884 -66.400642 -2.016748 -4.8726296 -2.012989 -4.8962765 -30.444056 -120.60625
3198000000 -30.940063 -68.149483 -2.0140421 -8.6151991 -2.0148234 -8.6060667 -30.445995 -123.91484
3199000000 -31.154514 -70.090073 -2.0138216 -12.320737 -2.0148463 -12.345615 -30.721558 -126.35522
3200000000 -31.25008 -72.635803 -2.0162294 -16.028587 -2.0140491 -16.035793 -30.903528 -131.35826
3201000000 -31.242189 -75.29644 -2.0166194 -19.752983 -2.0138261 -19.744999 -31.002897 -135.61807
3202000000 -31.340036 -78.495979 -2.0207953 -23.424067 -2.0164874 -23.460875 -31.222195 -140.01682
3203000000 -31.44623 -79.698471 -2.0175214 -27.182114 -2.012619 -27.216681 -31.490988 -143.24181
3204000000 -31.446692 -83.125244 -2.0214314 -30.871561 -2.0157065 -30.92794 -31.61318 -146.11505
3205000000 -31.802525 -85.556213 -2.0206449 -34.585163 -2.0130301 -34.612125 -31.976624 -150.02031
3206000000 -32.090916 -87.295006 -2.0171409 -38.319668 -2.0157626 -38.329636 -32.465473 -154.65291
3207000000 -32.138882 -88.894798 -2.017344 -42.010159 -2.0199294 -42.056412 -32.570976 -156.20746
3208000000 -32.024349 -92.418259 -2.0211227 -45.731712 -2.0173459 -45.789211 -32.847599 -160.2034
3209000000 -32.486561 -93.602997 -2.0163484 -49.449127 -2.0198395 -49.484577 -33.184708 -164.17151
3210000000 -32.717327 -94.402802 -2.0158057 -53.190418 -2.0177662 -53.200619 -33.740768 -167.59134
3211000000 -32.884472 -99.261963 -2.0205488 -56.929459 -2.017858 -56.895905 -34.012684 -171.26334
3212000000 -33.16135 -100.49129 -2.0192049 -60.63398 -2.015749 -60.62883 -34.45306 -175.45265
3213000000 -33.323944 -103.09145 -2.0186779 -64.348587 -2.0182264 -64.363037 -34.98605 -177.42168
3214000000 -33.623566 -106.13004 -2.0161743 -68.044807 -2.0151265 -68.068398 -35.587639 177.81715
3215000000 -33.898376 -107.89352 -2.0199006 -71.715637 -2.0150075 -71.820747 -36.003319 174.81799
3216000000 -34.477001 -108.97874 -2.0185642 -75.473885 -2.02 -75.459656 -36.592499 172.33575
3217000000 -34.562588 -111.32446 -2.0209112 -79.188202 -2.0222001 -79.211899 -37.30743 170.26389
3218000000 -34.958817 -116.0603 -2.022547 -82.914268 -2.0192897 -82.897583 -38.049156 164.12325
3219000000 -35.302685 -116.12952 -2.0193186 -86.632278 -2.0171223 -86.633392 -38.716911 162.90021
3220000000 -35.97765 -119.33857 -2.0214996 -90.339172 -2.0147657 -90.348442 -39.840076 159.00613
3221000000 -36.051075 -118.1711 -2.019448 -94.056259 -2.0180147 -94.067001 -39.947517 155.07307
3222000000 -36.504692 -123.82804 -2.0244498 -97.764046 -2.0174425 -97.808952 -41.474327 151.50328
3223000000 -37.255993 -123.4784 -2.0208733 -101.47467 -2.0192878 -101.52351 -41.866692 150.26111
3224000000 -37.347656 -127.50957 -2.0185938 -105.19607 -2.0200787 -105.25721 -43.152031 147.53407
3225000000 -38.245857 -126.88609 -2.0206606 -108.90978 -2.0176508 -108.93245 -44.694458 144.65126
3226000000 -38.280296 -130.19485 -2.0215693 -112.59828 -2.0233948 -112.65372 -45.685501 135.715
3227000000 -39.137974 -130.69606 -2.0221679 -116.34142 -2.0228465 -116.38197 -46.786133 134.6819
3228000000 -39.693501 -130.72449 -2.0211611 -120.08054 -2.0204973 -120.06628 -48.406403 133.52222
3229000000 -40.50045 -128.87343 -2.0229623 -123.77729 -2.0198965 -123.78835 -50.588009 133.62579
3230000000 -41.654514 -128.8208 -2.0198712 -127.50401 -2.0229764 -127.51074 -51.253586 133.9982
3231000000 -42.108097 -131.4756 -2.024308 -131.226 -2.0255585 -131.24942 -52.317688 131.55226
3232000000 -43.244286 -132.7292 -2.0253642 -134.92867 -2.0187635 -134.92979 -60.631218 134.67635
3233000000 -43.867908 -133.97371 -2.026618 -138.64822 -2.0250587 -138.658 -66.312325 130.7404
3234000000 -44.133442 -122.41566 -2.020206 -142.37257 -2.023103 -142.33818 -79.672432 81.70443
3235000000 -44.45089 -131.32098 -2.0261426 -146.05284 -2.0214663 -146.08961 -66.354065 -17.380619
3236000000 -46.137543 -120.60541 -2.0283628 -149.80516 -2.0213449 -149.78285 -61.23896 -66.993141
3237000000 -47.526939 -121.04754 -2.0247436 -153.5248 -2.0230377 -153.52348 -57.474926 -63.861889
3238000000 -48.669468 -108.99801 -2.026885 -157.22815 -2.0200391 -157.22263 -57.408916 -77.688065
3239000000 -48.181652 -109.21473 -2.0272539 -160.92122 -2.0244448 -160.96413 -54.943218 -61.935871
3240000000 -48.033859 -101.47798 -2.0228229 -164.65263 -2.0265322 -164.68559 -53.80513 -73.968765
3241000000 -49.40506 -93.855431 -2.0253494 -168.40453 -2.0243907 -168.39529 -52.998146 -66.651985
3242000000 -48.909512 -90.689476 -2.0234935 -172.09827 -2.0249848 -172.14218 -52.111275 -71.107239
3243000000 -49.123665 -87.17585 -2.0301533 -175.82768 -2.0221295 -175.82442 -52.359009 -71.882843
3244000000 -48.543625 -85.250366 -2.0235434 -179.53052 -2.0249355 -179.54482 -49.433475 -70.824875
3245000000 -48.471539 -81.446114 -2.0284698 176.75258 -2.0239546 176.74908 -50.030746 -63.736607
3246000000 -47.791424 -80.679779 -2.0252607 173.05763 -2.0226939 173.02405 -50.235046 -68.474846
3247000000 -47.567863 -86.456238 -2.0305755 169.34268 -2.02601 169.32114 -47.871143 -68.551857
3248000000 -45.959461 -80.689552 -2.0271637 165.63484 -2.0269458 165.59273 -47.712337 -66.695816
3249000000 -47.215408 -79.779205 -2.0283406 161.86639 -2.0258622 161.8988 -46.961815 -73.05896
3250000000 -48.11179 -80.15696 -2.0288868 158.18031 -2.030108 158.17064 -46.070019 -67.907486
3251000000 -47.735695 -89.059082 -2.029952 154.48808 -2.0216997 154.43532 -46.677486 -71.451256
3252000000 -48.447979 -90.045959 -2.0287716 150.77611 -2.0284379 150.71713 -45.576473 -66.692688
3253000000 -47.355057 -91.290237 -2.0309148 147.03036 -2.0252733 147.00908 -44.444221 -65.530823
3254000000 -48.231056 -102.30991 -2.0330775 143.3335 -2.0269053 143.28693 -43.930874 -70.341759
3255000000 -51.23695 -90.068916 -2.0285652 139.58075 -2.0285041 139.58809 -43.411438 -69.829918
3256000000 -50.171398 -96.208672 -2.0292573 135.8709 -2.029274 135.87314 -42.649727 -72.523094
3257000000 -51.174507 -106.47552 -2.0264938 132.15094 -2.0262561 132.15933 -42.121861 -75.402176
3258000000 -51.000103 -113.7145 -2.0294788 128.46445 -2.0273263 128.44202 -40.977875 -75.785286
3259000000 -53.647438 -117.64526 -2.0324125 124.75782 -2.0312238 124.71939 -41.033077 -74.887695
3260000000 -53.224106 -128.83244 -2.0309453 121.03035 -2.0292957 120.98479 -40.375385 -80.447113
3261000000 -53.700657 -150.62543 -2.0368598 117.29767 -2.0318003 117.28426 -39.515575 -82.426422
3262000000 -53.014042 -175.67023 -2.0300584 113.59535 -2.0300725 113.56635 -38.940952 -85.069084
3263000000 -54.951447 156.8067 -2.0294607 109.8717 -2.0313921 109.83221 -38.765915 -86.165901
3264000000 -52.434181 149.25409 -2.03195 106.14164 -2.030431 106.15173 -38.209835 -86.350075
3265000000 -53.343498 148.81793 -2.0332327 102.41894 -2.0361059 102.42274 -37.678101 -92.827141
3266000000 -50.9538 120.60581 -2.032768 98.73243 -2.0303075 98.687271 -37.035374 -94.358147
3267000000 -48.55431 116.58503 -2.0314901 95.024902 -2.0346756 94.961067 -36.358486 -97.600105
3268000000 -49.194904 112.19409 -2.033376 91.283844 -2.0309203 91.279099 -36.230927 -101.34795
3269000000 -47.465599 98.569252 -2.0356703 87.586418 -2.0364282 87.577927 -35.977932 -103.67303
3270000000 -45.682915 98.593956 -2.0369136 83.82856 -2.0298984 83.835953 -35.378075 -106.24205
3271000000 -44.547325 85.864868 -2.0367754 80.141075 -2.033819 80.110443 -35.049671 -109.36287
3272000000 -43.638687 83.962646 -2.0372519 76.437363 -2.0351861 76.429962 -34.796307 -114.49195
3273000000 -42.461838 80.737633 -2.0342753 72.718262 -2.0370667 72.683777 -34.453529 -116.50833
3274000000 -42.097866 74.203346 -2.0394392 69.00164 -2.0324454 68.948036 -34.215092 -121.8288
3275000000 -40.938904 70.43573 -2.0405793 65.268295 -2.0354714 65.258575 -33.833202 -125.52151
3276000000 -40.814381 68.248329 -2.0374932 61.558849 -2.0362277 61.528454 -33.684296 -129.06064
3277000000 -40.014832 65.75634 -2.0380445 57.804501 -2.0356202 57.824055 -33.676609 -132.2179
3278000000 -39.407581 57.733139 -2.0394142 54.14484 -2.0342796 54.125553 -33.245667 -137.11099
3279000000 -38.596077 56.465172 -2.0379167 50.416607 -2.0382073 50.388123 -33.163048 -140.617
3280000000 -38.072334 55.310028 -2.0401735 46.673203 -2.0380697 46.662033 -33.189602 -144.75359
3281000000 -37.355049 49.940884 -2.0362368 42.972561 -2.040899 42.964218 -32.892536 -149.25612
3282000000 -36.918411 47.705017 -2.045089 39.27919 -2.0406134 39.245003 -32.901562 -153.02876
3283000000 -36.760708 44.889248 -2.0410001 35.567852 -2.0415456 35.525223 -32.85088 -158.28302
3284000000 -36.049187 41.10675 -2.0395365 31.84325 -2.0451086 31.819792 -32.770645 -161.55313
3285000000 -35.700424 39.266254 -2.0429368 28.10116 -2.0421824 28.071487 -32.75631 -167.6181
3286000000 -35.371658 34.405666 -2.0419006 24.400742 -2.0467215 24.392027 -32.674583 -172.12605
3287000000 -34.984806 31.85589 -2.0422044 20.667768 -2.0411456 20.671877 -32.526695 -176.22342
3288000000 -34.653988 29.878956 -2.0441651 16.954952 -2.0429189 16.966295 -32.548477 178.34262
3289000000 -34.355583 27.762138 -2.0429182 13.263853 -2.0432613 13.264086 -32.40844 173.91624
3290000000 -33.989311 23.047518 -2.0425892 9.5525417 -2.0436242 9.5014334 -32.520283 168.67657
3291000000 -33.79966 20.062853 -2.0449245 5.8350582 -2.0442083 5.8036013 -32.5448 165.2065
3292000000 -33.527721 18.054235 -2.0445793 2.0934606 -2.0401452 2.1067498 -32.485165 158.51517
3293000000 -33.235237 15.262942 -2.0407956 -1.6066121 -2.0462761 -1.6390514 -32.735226 155.00945
3294000000 -33.105003 13.95791 -2.0512977 -5.316535 -2.0431626 -5.3438683 -32.509262 149.3925
3295000000 -32.862785 11.711308 -2.0495639 -9.0316191 -2.0410078 -9.0361929 -32.583912 143.7585
3296000000 -32.770508 7.5966706 -2.0505865 -12.749284 -2.0423043 -12.78439 -32.768272 136.0442
3297000000 -32.477879 6.1750622 -2.0503471 -16.452179 -2.0402663 -16.480753 -32.711594 130.97061
3298000000 -32.593105 4.4818702 -2.0490897 -20.161715 -2.0436242 -20.191866 -32.841091 125.9588
3299000000 -32.36483 1.3501102 -2.0491195 -23.875574 -2.0473456 -23.892368 -32.811703 119.95714
3300000000 -32.350559 -0.40779757 -2.0492911 -27.605873 -2.0485332 -27.574289 -32.821899 114.68816
3301000000 -32.416389 -1.9001665 -2.0525033 -31.313116 -2.0453308 -31.315561 -32.828419 109.51501
3302000000 -32.401505 -5.0899806 -2.0517185 -35.0457 -2.0471685 -35.06081 -33.306183 103.00281
3303000000 -32.394451 -7.6082544 -2.0505803 -38.759884 -2.0478628 -38.775608 -33.392391 97.804596
3304000000 -32.299183 -8.3812571 -2.0497246 -42.423164 -2.047698 -42.470013 -33.29266 90.918205
3305000000 -32.382385 -10.685939 -2.0449946 -46.191685 -2.0476861 -46.197521 -33.370647 83.1978
3306000000 -32.425777 -12.977133 -2.054846 -49.884422 -2.0471315 -49.919682 -33.802864 77.030457
3307000000 -32.562115 -14.53745 -2.0522749 -53.595013 -2.0504048 -53.623268 -33.556301 71.334602
3308000000 -32.476376 -15.843517 -2.0486779 -57.340252 -2.0511453 -57.32832 -33.658833 64.748894
3309000000 -32.646168 -17.955681 -2.0558171 -61.03326 -2.0478864 -61.048416 -33.90638 56.964497
3310000000 -32.743069 -18.677746 -2.050391 -64.731514 -2.053103 -64.760521 -33.762589 49.052467
3311000000 -32.678486 -19.673325 -2.0547471 -68.478127 -2.050411 -68.477844 -33.884094 42.131474
3312000000 -32.890869 -20.934927 -2.0524812 -72.189629 -2.0496166 -72.220726 -34.133495 35.384453
3313000000 -32.825096 -23.35837 -2.048167 -75.914925 -2.0515656 -75.94223 -34.119698 27.994219
3314000000 -33.034294 -23.749191 -2.0564022 -79.604088 -2.0474596 -79.628998 -34.089706 21.346777
3315000000 -32.982731 -23.448658 -2.0523188 -83.317421 -2.0466671 -83.356422 -33.973919 13.552072
3316000000 -33.550007 -24.391411 -2.0571241 -87.038437 -2.0524526 -87.057762 -33.923561 7.9737935
3317000000 -33.431343 -26.692919 -2.0537455 -90.771461 -2.0469286 -90.770088 -33.749561 1.0072641
3318000000 -33.518284 -26.960878 -2.0539784 -94.467613 -2.049793 -94.499229 -33.802135 -6.976016
3319000000 -33.218582 -27.181322 -2.0536671 -98.201492 -2.0507994 -98.219131 -33.769478 -14.115541
3320000000 -33.633392 -29.126635 -2.0513573 -101.90402 -2.0506916 -101.93546 -33.630123 -19.428524
3321000000 -33.412724 -28.791313 -2.053329 -105.61868 -2.0493767 -105.64967 -33.595356 -28.094019
3322000000 -33.753727 -28.324636 -2.0551376 -109.33307 -2.0557032 -109.3448 -33.276226 -35.537174
3323000000 -33.69231 -27.931061 -2.0557053 -113.05326 -2.0486252 -113.07632 -33.186733 -42.555004
3324000000 -33.779266 -28.64127 -2.0531309 -116.76238 -2.0526552 -116.79774 -33.166061 -47.78064
3325000000 -33.789871 -28.836229 -2.0542738 -120.50629 -2.0536897 -120.5071 -32.995491 -54.303928
3326000000 -33.834614 -27.908016 -2.0550096 -124.19821 -2.0554855 -124.23425 -32.865498 -61.622799
3327000000 -33.746399 -29.591539 -2.0550303 -127.90939 -2.0528529 -127.93166 -32.864674 -66.5345
3328000000 -33.799175 -28.931227 -2.0523124 -131.62082 -2.0559464 -131.64531 -32.663277 -73.439987
3329000000 -33.827015 -28.249735 -2.0575292 -135.34879 -2.0565984 -135.36519 -32.65604 -79.822395
3330000000 -33.632168 -28.667059 -2.056618 -139.05986 -2.0567517 -139.09766 -32.506855 -86.873756
3331000000 -33.824394 -26.030212 -2.0582056 -142.79376 -2.0599794 -142.81445 -32.427624 -91.40757
3332000000 -33.638481 -27.766869 -2.0597937 -146.51518 -2.0562525 -146.52582 -32.437 -97.800201
3333000000 -33.420826 -28.213173 -2.05656 -150.18855 -2.0558307 -150.22656 -32.360134 -103.79963
3334000000 -33.116428 -27.049019 -2.0608139 -153.93407 -2.058104 -153.97012 -32.25853 -110.9545
3335000000 -33.084393 -27.848412 -2.057364 -157.63612 -2.0584655 -157.66019 -32.145081 -115.97798
3336000000 -32.838017 -27.832468 -2.0569139 -161.34402 -2.0602248 -161.39456 -32.170612 -122.82648
3337000000 -32.55125 -28.498266 -2.0541189 -165.07375 -2.0573978 -165.09288 -32.273315 -129.1996
3338000000 -32.615265 -29.713957 -2.0580239 -168.7673 -2.0560012 -168.80025 -32.211174 -136.41649
3339000000 -32.304878 -29.4149 -2.0623209 -172.5137 -2.0603237 -172.53227 -32.106514 -141.1678
3340000000 -32.283794 -29.184101 -2.0569422 -176.24493 -2.0587242 -176.23387 -31.978489 -147.42917
3341000000 -32.009048 -30.578402 -2.0613332 -179.94777 -2.0603623 -179.94347 -31.932407 -154.08922
3342000000 -31.835936 -31.467266 -2.0578246 176.35443 -2.0586817 176.34256 -31.898796 -161.0089
3343000000 -31.489414 -31.5219 -2.0644283 172.60997 -2.0596852 172.62421 -32.086464 -165.96172
3344000000 -31.329168 -33.578529 -2.0621362 168.90109 -2.0592759 168.92155 -31.905684 -172.36662
3345000000 -31.175177 -33.307453 -2.0623727 165.18291 -2.0597818 165.1971 -31.914373 -179.68445
3346000000 -30.90881 -35.221554 -2.0621216 161.4761 -2.0658739 161.46591 -31.87635 174.79788
3347000000 -30.871752 -35.938953 -2.0632493 157.76865 -2.0620685 157.75505 -31.669851 168.4039
3348000000 -30.598543 -37.680672 -2.0645461 154.05725 -2.0659997 154.03416 -31.773718 163.25587
3349000000 -30.596434 -38.871727 -2.0691817 150.33522 -2.0617285 150.34129 -31.698652 156.34915
3350000000 -30.419016 -40.963894 -2.0661385 146.60666 -2.0637047 146.61552 -31.620193 149.88336
3351000000 -30.222563 -42.293064 -2.0684743 142.9001 -2.0606382 142.88007 -31.59132 144.33527
3352000000 -30.137228 -43.863064 -2.0663874 139.17975 -2.0667632 139.18839 -31.569525 139.08061
3353000000 -30.063484 -46.105324 -2.0706987 135.48259 -2.065088 135.44981 -31.635662 133.68721
3354000000 -30.052921 -47.593182 -2.0675673 131.78966 -2.0647573 131.76932 -31.532387 125.76489
3355000000 -30.01215 -48.513138 -2.0696576 128.04608 -2.0668221 128.03368 -31.544285 120.15421
3356000000 -29.893629 -50.980576 -2.0701787 124.36893 -2.0664937 124.30541 -31.531965 116.8042
3357000000 -29.894325 -53.132446 -2.0651736 120.59869 -2.0677707 120.60367 -31.546265 110.23816
3358000000 -29.913322 -54.981743 -2.0656886 116.90145 -2.067014 116.89485 -31.47023 104.16818
3359000000 -29.779593 -56.882011 -2.0666099 113.2034 -2.0665674 113.17819 -31.591518 99.62632
3360000000 -29.983265 -57.516476 -2.0675082 109.48537 -2.0681133 109.46963 -31.664146 92.471329
3361000000 -29.952692 -60.06385 -2.0692682 105.7686 -2.0724418 105.75874 -31.641291 88.142746
3362000000 -30.006264 -61.540359 -2.0697355 102.04649 -2.0716701 102.05299 -31.583717 82.134621
3363000000 -30.145262 -63.257271 -2.0682962 98.349655 -2.0650792 98.335052 -31.812767 75.164597
3364000000 -30.135822 -66.292549 -2.0703857 94.628227 -2.0688407 94.595543 -31.882776 70.016563
3365000000 -30.339682 -67.39679 -2.0698845 90.899017 -2.0728126 90.895226 -31.844969 64.456589
3366000000 -30.286718 -69.421921 -2.0691707 87.189217 -2.0683045 87.156998 -32.000443 59.095692
3367000000 -30.320887 -71.025597 -2.0688887 83.460381 -2.0682654 83.430489 -32.113068 52.965523
3368000000 -30.580744 -73.086601 -2.0705984 79.738411 -2.0673242 79.743721 -32.304905 46.473049
3369000000 -30.634117 -74.834045 -2.070585 76.060303 -2.0671403 76.049194 -32.434387 40.591526
3370000000 -30.615515 -77.027199 -2.0695739 72.350746 -2.0684004 72.27784 -32.335926 35.184013
3371000000 -30.959473 -77.410957 -2.0710049 68.60498 -2.0709925 68.596336 -32.612583 27.563984
3372000000 -31.079647 -79.318764 -2.0695004 64.903282 -2.0707543 64.891541 -32.610321 21.501059
3373000000 -31.290592 -80.121147 -2.0705037 61.186214 -2.0664766 61.154167 -32.9515 15.792794
3374000000 -31.451952 -82.72876 -2.0719182 57.453812 -2.0691388 57.453121 -32.82692 10.127499
3375000000 -31.413494 -84.046547 -2.0705104 53.766129 -2.0701058 53.739231 -32.831989 4.7971096
3376000000 -31.677542 -85.509644 -2.0668678 50.056355 -2.0697238 50.020329 -32.93153 -2.7498617
3377000000 -31.751617 -86.893066 -2.0758071 46.356606 -2.0678949 46.322174 -33.070721 -8.5550652
3378000000 -32.023251 -88.337486 -2.0699694 42.627762 -2.0736759 42.590557 -33.147449 -15.305611
3379000000 -32.050976 -88.388206 -2.0711038 38.880245 -2.0716445 38.867508 -33.208797 -20.233955
3380000000 -32.256695 -89.768478 -2.0785546 35.163326 -2.0725558 35.149586 -33.322128 -25.553534
3381000000 -32.365551 -89.313271 -2.0694263 31.470282 -2.070765 31.429184 -33.49123 -33.009968
3382000000 -32.571808 -92.038918 -2.0722871 27.745266 -2.0703602 27.752214 -33.3395 -38.726292
3383000000 -32.597595 -92.394867 -2.0730162 24.033476 -2.0712304 23.990894 -33.489643 -43.172699
3384000000 -32.609169 -93.643829 -2.0731652 20.312023 -2.0731881 20.30604 -33.539585 -50.060715
3385000000 -32.991642 -94.189926 -2.0739863 16.596178 -2.0728893 16.575106 -33.592457 -53.593624
3386000000 -33.00436 -94.288269 -2.0731535 12.880191 -2.0708539 12.837161 -33.672798 -61.271782
3387000000 -33.174553 -93.643066 -2.0764542 9.134057 -2.068691 9.1575546 -33.942478 -67.011154
3388000000 -33.442154 -95.049652 -2.0735185 5.438004 -2.0703444 5.4305472 -33.901314 -73.174973
3389000000 -33.408985 -94.437286 -2.0733838 1.7132343 -2.0747039 1.7284037 -34.097515 -78.520432
3390000000 -33.387333 -94.276146 -2.0752127 -1.9602571 -2.0702364 -2.0140193 -34.303387 -85.182869
3391000000 -33.38567 -96.439186 -2.0715449 -5.6879692 -2.0743294 -5.7088122 -34.492245 -90.01403
3392000000 -33.630806 -96.623924 -2.0736074 -9.4185467 -2.074662 -9.4214621 -34.423889 -95.691483
3393000000 -33.620728 -96.473358 -2.0742064 -13.122704 -2.0697732 -13.171377 -34.64397 -101.97575
3394000000 -33.675121 -95.58152 -2.0766475 -16.847492 -2.0718348 -16.867517 -34.755054 -108.84092
3395000000 -33.547165 -95.645828 -2.0720325 -20.559628 -2.0755181 -20.577646 -35.192402 -112.75748
3396000000 -33.688034 -95.464043 -2.0722528 -24.290592 -2.0740013 -24.298878 -35.281998 -120.43148
3397000000 -33.486816 -96.793266 -2.0828378 -28.007708 -2.0755103 -28.024544 -34.982265 -125.1456
3398000000 -33.414837 -97.186989 -2.0797956 -31.736053 -2.0746729 -31.765196 -35.48624 -129.14398
3399000000 -33.428833 -97.603432 -2.0781131 -35.440834 -2.0755219 -35.450142 -35.580437 -138.84961
3400000000 -33.212273 -98.231766 -2.0780003 -39.173203 -2.0772152 -39.168015 -35.523258 -144.54349
3401000000 -33.312439 -99.462051 -2.0785284 -42.855591 -2.072597 -42.876148 -35.809017 -151.31938
3402000000 -33.149719 -100.74253 -2.0752511 -46.582375 -2.0806055 -46.586044 -35.55431 -157.77003
3403000000 -33.01461 -102.43588 -2.0808232 -50.29464 -2.0771482 -50.318607 -35.623199 -163.88394
3404000000 -32.99168 -103.76598 -2.0769942 -54.001949 -2.0768993 -54.037815 -35.773399 -170.81435
3405000000 -32.909718 -105.38467 -2.0766892 -57.733669 -2.0763841 -57.73843 -35.812881 -175.55307
3406000000 -32.777748 -107.05833 -2.0792761 -61.444382 -2.0797279 -61.451862 -35.476051 178.07513
3407000000 -32.719028 -109.57137 -2.0804973 -65.143135 -2.0811751 -65.167351 -35.357708 172.64618
3408000000 -32.700596 -111.18694 -2.0829737 -68.871849 -2.0785675 -68.895119 -35.538509 167.77611
3409000000 -32.773178 -113.42879 -2.0818131 -72.60601 -2.079448 -72.610893 -35.416035 162.08693
3410000000 -32.637524 -116.44732 -2.0797939 -76.324295 -2.0795453 -76.31871 -35.432835 158.15121
3411000000 -32.497734 -119.11237 -2.0801373 -80.022171 -2.0793936 -80.056976 -35.093502 152.14928
3412000000 -32.513298 -122.17973 -2.0827596 -83.718147 -2.0810966 -83.776321 -34.828777 147.30289
3413000000 -32.426548 -124.66416 -2.082962 -87.466042 -2.0811405 -87.474419 -34.902149 142.12914
3414000000 -32.567787 -128.1692 -2.084861 -91.173286 -2.0804553 -91.194382 -34.680332 138.72462
3415000000 -32.539009 -131.08754 -2.0777726 -94.867485 -2.0786653 -94.909081 -34.734501 134.70372
3416000000 -32.481178 -134.31813 -2.0820055 -98.606224 -2.0856028 -98.647003 -34.643398 130.17523
3417000000 -32.637451 -137.50815 -2.083729 -102.31307 -2.0835521 -102.35682 -34.240219 125.05771
3418000000 -32.682251 -140.76387 -2.0833409 -106.0278 -2.0821717 -106.03552 -34.165749 122.39539
3419000000 -32.569614 -144.40076 -2.0829191 -109.76884 -2.0825028 -109.75643 -34.219051 117.36837
3420000000 -32.633205 -148.91582 -2.0866616 -113.47517 -2.0855443 -113.49816 -34.242317 114.29189
3421000000 -32.63324 -151.83858 -2.0926101 -117.17684 -2.0781159 -117.18882 -34.091438 110.30347
3422000000 -32.702465 -156.72823 -2.0847869 -120.92625 -2.0834258 -120.9435 -33.872192 105.96106
3423000000 -32.816734 -160.51402 -2.0853255 -124.63048 -2.0864301 -124.61444 -33.689125 102.63592
3424000000 -32.659962 -163.80487 -2.0868475 -128.31049 -2.0860848 -128.37209 -33.415382 99.664688
3425000000 -32.749321 -169.4621 -2.0872309 -132.03937 -2.0829382 -132.06172 -33.377464 95.883698
3426000000 -32.758736 -171.93527 -2.0856204 -135.78204 -2.0875335 -135.76192 -33.363564 91.97699
3427000000 -32.895657 -176.36647 -2.0898495 -139.47394 -2.0865552 -139.48895 -33.119213 87.893677
3428000000 -32.969955 178.92365 -2.0848095 -143.21837 -2.0839636 -143.25162 -33.066547 85.175972
3429000000 -32.916286 173.70613 -2.0840993 -146.89493 -2.0869274 -146.91992 -32.77438 82.143486
3430000000 -32.87944 170.13435 -2.0888503 -150.61165 -2.0812716 -150.63316 -32.889244 79.037178
3431000000 -32.909103 164.31728 -2.0871999 -154.34041 -2.0865273 -154.3479 -32.826172 74.965279
3432000000 -33.013657 160.15309 -2.0899348 -158.05824 -2.0873325 -158.10127 -32.565662 72.182037
3433000000 -33.031105 155.02451 -2.0892527 -161.7764 -2.0875657 -161.78261 -32.460876 67.321609
3434000000 -32.97678 150.48949 -2.093282 -165.49721 -2.0886157 -165.50221 -32.360626 64.788437
3435000000 -33.123596 146.23813 -2.0921767 -169.20195 -2.0922871 -169.2373 -31.961945 61.794353
3436000000 -33.046139 141.39374 -2.0923021 -172.93651 -2.0896518 -172.94377 -31.984381 56.982327
3437000000 -32.870274 137.43605 -2.0908175 -176.64264 -2.0871074 -176.67664 -31.704111 53.406963
3438000000 -33.030502 132.73198 -2.0897455 179.65862 -2.090704 179.64929 -31.653008 49.252525
3439000000 -33.017532 126.88036 -2.093822 175.92374 -2.0927911 175.91554 -31.459253 45.731449
3440000000 -33.106556 123.06706 -2.0926278 172.23969 -2.0882778 172.1801 -31.346397 42.382706
3441000000 -32.848602 117.51192 -2.0944059 168.50954 -2.0864112 168.49484 -31.228178 39.388042
3442000000 -32.800323 112.14984 -2.0898933 164.79938 -2.0969224 164.74963 -30.853157 35.52919
3443000000 -32.864578 107.71533 -2.0988219 161.0647 -2.0903518 161.06175 -30.769291 31.663841
3444000000 -32.897171 103.20713 -2.095243 157.36443 -2.0956123 157.33212 -30.572367 27.905373
3445000000 -32.569061 98.910774 -2.095351 153.62842 -2.092603 153.61345 -30.297958 24.939907
3446000000 -32.826206 94.111092 -2.0967021 149.93555 -2.0946662 149.90393 -30.220196 20.34037
3447000000 -32.771118 89.551178 -2.0970218 146.1994 -2.1009495 146.16977 -30.087685 16.950962
3448000000 -32.582397 84.544556 -2.0954144 142.49524 -2.0980027 142.48891 -29.956331 13.427718
3449000000 -32.352207 81.081772 -2.0984707 138.77292 -2.0987396 138.76677 -29.805595 9.7652893
3450000000 -32.480045 77.112755 -2.101999 135.0558 -2.0974431 135.05934 -29.662992 5.3741803
3451000000 -32.232746 72.258453 -2.1002517 131.34694 -2.0994995 131.31741 -29.520912 1.6769682
3452000000 -32.034389 68.155907 -2.1007664 127.63148 -2.0917153 127.59231 -29.374468 -1.8605696
3453000000 -32.057892 64.157608 -2.1037495 123.91795 -2.0964928 123.89537 -29.261448 -5.6586304
3454000000 -31.908173 61.61599 -2.0953994 120.19378 -2.0933278 120.2177 -29.171864 -8.5581121
3455000000 -31.97691 58.209831 -2.0963817 116.49705 -2.09671 116.44999 -29.129787 -14.271475
3456000000 -31.783621 55.081615 -2.1031904 112.79118 -2.09551 112.73595 -29.062963 -17.276993
3457000000 -31.882135 50.643246 -2.100395 109.05334 -2.1009693 109.01856 -28.986759 -21.993708
3458000000 -31.637737 47.72374 -2.1028135 105.32556 -2.100384 105.34167 -29.086477 -25.978582
3459000000 -31.601332 44.113411 -2.1007173 101.64476 -2.0991089 101.61928 -29.084579 -28.919449
3460000000 -31.616314 41.702427 -2.0977867 97.92244 -2.1002283 97.89473 -28.961163 -35.09967
3461000000 -31.438375 39.867832 -2.1033962 94.214493 -2.1046031 94.188416 -29.017345 -38.870968
3462000000 -31.481052 36.324543 -2.0993345 90.454704 -2.1026011 90.451004 -28.989351 -43.537857
3463000000 -31.454748 34.399342 -2.1018667 86.772636 -2.0984707 86.747833 -28.985619 -48.447872
3464000000 -31.413605 31.065104 -2.1031139 83.03688 -2.0977035 83.039917 -29.035952 -52.965828
3465000000 -31.390738 29.747137 -2.1019561 79.325417 -2.1014063 79.320229 -29.203728 -57.629627
3466000000 -31.316933 28.264442 -2.1042433 75.61795 -2.0990822 75.606575 -29.10111 -62.630329
3467000000 -31.385132 24.89716 -2.1031828 71.916954 -2.1053429 71.888885 -29.379393 -68.71627
3468000000 -31.215796 24.354761 -2.103863 68.201187 -2.0990529 68.171417 -29.14922 -72.68766
3469000000 -31.180317 22.43215 -2.1049905 64.490143 -2.1000435 64.471748 -29.412357 -78.869926
3470000000 -31.282478 21.836695 -2.0990016 60.760796 -2.1036832 60.726509 -29.39389 -83.855835
3471000000 -31.164665 19.991781 -2.1063945 57.015614 -2.1027479 57.043415 -29.415707 -89.610611
3472000000 -31.056349 18.749994 -2.1025481 53.329014 -2.1021497 53.293293 -29.457321 -95.061073
3473000000 -30.956659 16.193649 -2.1090884 49.597801 -2.1047766 49.565319 -29.562263 -101.62418
3474000000 -30.985807 16.490784 -2.1032076 45.887836 -2.1044195 45.893562 -29.597105 -106.75544
3475000000 -30.868176 14.964001 -2.1080391 42.194141 -2.1038167 42.15173 -29.796791 -113.62616
3476000000 -30.846243 13.277602 -2.1069958 38.461636 -2.1020734 38.435455 -29.850008 -119.76264
3477000000 -30.730732 13.053467 -2.1064026 34.727924 -2.1076052 34.719513 -29.623663 -125.24657
3478000000 -30.695435 12.352147 -2.1078441 31.022169 -2.1066201 30.998022 -29.740917 -131.59985
3479000000 -30.517668 11.291247 -2.1137059 27.301104 -2.1079063 27.278214 -29.784849 -139.35246
3480000000 -30.401728 9.5824041 -2.1064072 23.601711 -2.1088111 23.583031 -29.817936 -143.99059
3481000000 -30.300594 9.233696 -2.1099744 19.869659 -2.1070383 19.846088 -29.75424 -151.40538
3482000000 -30.075645 7.5799341 -2.1096442 16.156332 -2.1073029 16.155037 -29.812134 -157.42401
3483000000 -30.144108 6.6780272 -2.1094246 12.434148 -2.1069946 12.433618 -29.732685 -163.75401
3484000000 -29.982727 6.1141872 -2.107348 8.7379541 -2.1094885 8.7156963 -29.770336 -170.00909
3485000000 -29.830336 4.4972849 -2.1121264 5.0048079 -2.1066582 5.0102224 -29.564564 -176.83855
3486000000 -29.58292 2.9163091 -2.1143827 1.2914988 -2.1121032 1.2850033 -29.533834 177.18843
3487000000 -29.46534 2.6862538 -2.1120052 -2.4102209 -2.1111393 -2.4576771 -29.572958 170.10332
3488000000 -29.194153 1.1980224 -2.1124566 -6.132658 -2.1120689 -6.1691895 -29.4797 163.34688
3489000000 -29.081747 -0.020276198 -2.114809 -9.8643274 -2.1096752 -9.8695726 -29.438725 156.30801
3490000000 -28.831059 -1.4277673 -2.1164007 -13.588031 -2.1116292 -13.565663 -29.400532 150.92493
3491000000 -28.668657 -3.0941775 -2.1154418 -17.285988 -2.1104991 -17.303209 -29.123571 144.85976
3492000000 -28.46007 -5.0767884 -2.113236 -20.984922 -2.1097257 -21.010994 -28.986057 137.22208
3493000000 -28.221891 -6.4698782 -2.1153858 -24.720301 -2.1111405 -24.736624 -28.837162 130.37915
3494000000 -28.141447 -8.1459455 -2.1205521 -28.417824 -2.1129096 -28.44548 -28.747852 124.92664
3495000000 -27.832376 -8.9074802 -2.1150036 -32.15411 -2.1166351 -32.189686 -28.563459 118.2818
3496000000 -27.66688 -11.832247 -2.1181901 -35.851238 -2.1199753 -35.87241 -28.457855 112.02353
3497000000 -27.416214 -12.426255 -2.1171076 -39.587082 -2.1133053 -39.584011 -28.142527 105.20694
3498000000 -27.327133 -14.790693 -2.1193504 -43.291523 -2.1157086 -43.308029 -27.992012 98.742783
3499000000 -27.086639 -16.627247 -2.1189988 -47.018139 -2.1221294 -47.013977 -27.845806 93.413734
3500000000 -26.993324 -19.338305 -2.1184587 -50.702023 -2.1226358 -50.716412 -27.619732 87.518822
3501000000 -26.800941 -20.389259 -2.1200619 -54.429718 -2.1246264 -54.462914 -27.467615 81.392189
3502000000 -26.596235 -23.324232 -2.1246991 -58.126877 -2.1196434 -58.184673 -27.307196 75.755196
3503000000 -26.458048 -25.237318 -2.1256907 -61.864071 -2.1231439 -61.869152 -27.098228 70.399666
3504000000 -26.376444 -27.153803 -2.1266303 -65.575447 -2.1203861 -65.624031 -27.001511 64.671982
3505000000 -26.230234 -28.782789 -2.1230989 -69.275703 -2.1174245 -69.315742 -26.694521 59.536484
3506000000 -26.055273 -31.36302 -2.1264501 -73.003464 -2.1221633 -72.999031 -26.493078 54.266312
3507000000 -26.025675 -33.567688 -2.1243706 -76.693596 -2.1232703 -76.72863 -26.443802 49.08036
3508000000 -25.819681 -35.913227 -2.1258836 -80.437599 -2.1198037 -80.42514 -26.244753 43.635376
3509000000 -25.748817 -38.046467 -2.1250267 -84.125137 -2.1242669 -84.184883 -26.189495 38.666973
3510000000 -25.714806 -40.305477 -2.1277599 -87.824203 -2.1263506 -87.87368 -25.96991 34.266804
3511000000 -25.652601 -42.138428 -2.1274705 -91.56411 -2.1257751 -91.572121 -25.857874 29.119228
3512000000 -25.60318 -44.247799 -2.1295485 -95.263283 -2.1251569 -95.30999 -25.769453 24.203436
3513000000 -25.574539 -46.724838 -2.1279962 -98.968155 -2.1293468 -99.014732 -25.695423 19.602604
3514000000 -25.64134 -49.068375 -2.1276503 -102.70789 -2.1279891 -102.69521 -25.588076 15.131273
3515000000 -25.550167 -50.96941 -2.1285992 -106.41813 -2.1249292 -106.44197 -25.604378 10.539542
3516000000 -25.553349 -53.396091 -2.1276875 -110.12096 -2.1277373 -110.14483 -25.608744 5.27353
3517000000 -25.505474 -55.829025 -2.1259525 -113.8047 -2.1278167 -113.83667 -25.521997 0.95868897
3518000000 -25.561264 -58.083996 -2.129024 -117.52261 -2.1267056 -117.55003 -25.535656 -3.3682837
3519000000 -25.675228 -60.02438 -2.1308401 -121.24973 -2.1249762 -121.26523 -25.549578 -8.5235653
3520000000 -25.676226 -62.212887 -2.1302404 -124.94263 -2.1305039 -124.99283 -25.599091 -12.446223
3521000000 -25.699554 -64.846161 -2.1309106 -128.68951 -2.1244774 -128.66275 -25.674206 -17.287579
3522000000 -25.758091 -66.491669 -2.13116 -132.39938 -2.1306903 -132.39943 -25.725712 -22.393534
3523000000 -25.933014 -68.615105 -2.1300604 -136.12054 -2.129221 -136.11392 -25.776976 -26.033401
3524000000 -25.986347 -71.846153 -2.1274731 -139.79395 -2.125325 -139.85129 -25.753258 -30.793983
3525000000 -26.091091 -72.608673 -2.1299095 -143.5369 -2.1282835 -143.53795 -25.998541 -35.851109
3526000000 -26.219881 -75.998672 -2.1309075 -147.23421 -2.1239104 -147.26355 -26.049334 -39.98016
3527000000 -26.354187 -76.806267 -2.1234288 -150.94189 -2.1285045 -150.96587 -26.100054 -45.284023
3528000000 -26.444756 -79.52346 -2.1260467 -154.67952 -2.125803 -154.71519 -26.256491 -49.657967
3529000000 -26.692427 -80.954987 -2.1326144 -158.37843 -2.1261125 -158.40857 -26.383152 -54.256733
3530000000 -26.81225 -84.042969 -2.1287806 -162.09175 -2.1301799 -162.10104 -26.606598 -58.956486
3531000000 -26.861504 -85.431625 -2.1291118 -165.78427 -2.1270068 -165.82678 -26.832832 -63.754734
3532000000 -27.159107 -87.282211 -2.1260791 -169.53854 -2.1286085 -169.57704 -26.973665 -68.602638
3533000000 -27.344769 -89.242836 -2.1247818 -173.23586 -2.1283917 -173.24557 -27.037298 -73.490471
3534000000 -27.355366 -90.182838 -2.1292987 -176.94441 -2.1257794 -176.96994 -27.338877 -78.783012
3535000000 -27.639811 -92.142403 -2.1240172 179.35371 -2.1269784 179.30064 -27.613546 -83.997765
3536000000 -27.845673 -93.785225 -2.1222205 175.61378 -2.1296821 175.60902 -27.683064 -88.746765
3537000000 -27.926868 -95.421814 -2.1260052 171.89426 -2.1250408 171.86929 -28.148516 -93.197105
3538000000 -28.222538 -96.54837 -2.1290197 168.17203 -2.1250157 168.15048 -28.358353 -98.987244
3539000000 -28.436544 -97.725746 -2.1267648 164.44789 -2.123019 164.42787 -28.52453 -103.95064
3540000000 -28.526438 -100.18874 -2.1283908 160.77206 -2.1230118 160.74896 -28.960108 -109.49915
3541000000 -28.795664 -99.882294 -2.129251 157.05063 -2.1253421 157.03471 -29.27564 -114.05115
3542000000 -29.023026 -102.4443 -2.128494 153.34447 -2.1255732 153.31616 -29.503986 -119.42529
3543000000 -29.137253 -102.78237 -2.1290674 149.60155 -2.1261277 149.59492 -29.741133 -124.96046
3544000000 -29.334932 -103.45454 -2.1250436 145.87651 -2.1299829 145.8506 -30.221258 -130.24292
3545000000 -29.507324 -103.89606 -2.1251493 142.18098 -2.1230495 142.14401 -30.682882 -136.38193
3546000000 -29.586666 -105.25227 -2.1244686 138.47041 -2.1226206 138.43304 -31.072365 -143.48051
3547000000 -29.817881 -105.91611 -2.1286473 134.73074 -2.1245234 134.70702 -31.417114 -147.5956
3548000000 -29.940489 -104.98737 -2.1303849 131.01073 -2.1247633 131.01498 -31.889046 -154.37776
3549000000 -30.052601 -106.79071 -2.1234813 127.28979 -2.1264982 127.30223 -32.384022 -162.62537
3550000000 -30.059599 -107.13853 -2.1276374 123.59136 -2.1285799 123.56596 -32.613548 -168.06796
3551000000 -30.150923 -108.78443 -2.1262448 119.86848 -2.1266 119.86042 -33.035568 -175.46147
3552000000 -30.290115 -108.9416 -2.130007 116.14806 -2.1243501 116.10683 -33.487068 177.56958
3553000000 -30.386459 -107.86126 -2.1285598 112.41396 -2.1251543 112.41755 -34.005253 169.85376
3554000000 -30.425409 -109.34966 -2.1257961 108.70188 -2.1263731 108.71156 -34.198769 160.71783
3555000000 -30.490023 -109.35252 -2.1316488 104.98572 -2.1264858 104.95933 -34.314182 153.23189
3556000000 -30.503744 -111.10947 -2.1269002 101.28436 -2.1288846 101.26936 -34.841251 145.14853
3557000000 -30.506498 -110.43555 -2.1312244 97.568443 -2.1257625 97.535843 -34.932629 135.55147
3558000000 -30.568819 -111.64946 -2.1300933 93.850548 -2.1303995 93.838928 -34.924534 127.59378
3559000000 -30.604286 -112.55304 -2.1304007 90.153328 -2.1262295 90.13308 -34.975384 116.81924
3560000000 -30.540339 -112.72295 -2.1311109 86.402596 -2.1260386 86.380119 -34.966156 108.78973
3561000000 -30.576859 -114.15475 -2.1280046 82.706619 -2.128289 82.675041 -34.905361 99.747452
3562000000 -30.572296 -114.57777 -2.1303115 79.001183 -2.1292167 78.954552 -34.865616 92.41925
3563000000 -30.58119 -115.84863 -2.1345694 75.292389 -2.1299763 75.260345 -34.252293 86.202736
3564000000 -30.630024 -117.24494 -2.1330318 71.554016 -2.1270177 71.533524 -34.196411 77.489769
3565000000 -30.636711 -119.00935 -2.1332736 67.848907 -2.1267085 67.812019 -34.157803 71.235237
3566000000 -30.406483 -120.72705 -2.1327324 64.140106 -2.1283863 64.101639 -33.581097 62.165874
3567000000 -30.416157 -121.20851 -2.1319275 60.412834 -2.1315291 60.406071 -33.578037 58.22879
3568000000 -30.497829 -124.63177 -2.1359992 56.672333 -2.1325841 56.656612 -33.123158 53.013523
3569000000 -30.458092 -126.4361 -2.1334195 52.957619 -2.1317868 52.960892 -32.771152 45.98032
3570000000 -30.557016 -128.25681 -2.12974 49.265678 -2.1298373 49.226299 -32.788074 40.387901
3571000000 -30.709234 -128.8972 -2.1352091 45.552765 -2.1338286 45.529102 -32.577122 36.247173
3572000000 -30.549339 -132.5742 -2.1329727 41.824406 -2.1283715 41.818424 -32.351231 30.973898
3573000000 -30.631428 -132.81496 -2.1305444 38.091461 -2.134685 38.089775 -32.198227 26.658405
3574000000 -30.689322 -135.35182 -2.1346977 34.387222 -2.1304374 34.357136 -31.974962 22.215281
3575000000 -30.848597 -138.30734 -2.1354108 30.671362 -2.1295295 30.681961 -31.936611 18.306948
3576000000 -30.866848 -140.62912 -2.1405413 26.97893 -2.1326761 26.944468 -31.670555 13.280077
3577000000 -30.959671 -144.20042 -2.1336408 23.23645 -2.1339605 23.240349 -31.767206 8.1678925
3578000000 -31.098248 -146.13293 -2.1383996 19.509058 -2.1335196 19.511028 -31.50655 4.5133657
3579000000 -31.32233 -148.94221 -2.1319039 15.816427 -2.1372466 15.78295 -31.602167 1.914451
3580000000 -31.239412 -152.33487 -2.1325405 12.102496 -2.1311927 12.067543 -31.38439 -2.0746419
3581000000 -31.461109 -155.12338 -2.1336014 8.3856983 -2.134449 8.3376713 -31.334242 -6.9773545
3582000000 -31.628834 -158.2541 -2.1363003 4.6520023 -2.1348763 4.6402459 -31.344175 -10.37112
3583000000 -31.736044 -161.47592 -2.140507 0.93451452 -2.1360614 0.91857207 -31.32696 -15.050986
3584000000 -31.953421 -164.01677 -2.138257 -2.7712514 -2.1337917 -2.7822845 -31.390642 -17.986496
3585000000 -32.037495 -167.12662 -2.1358612 -6.5015831 -2.1349242 -6.5170283 -31.195583 -21.6738
3586000000 -32.288395 -169.88817 -2.1372101 -10.178452 -2.1323225 -10.208694 -31.352928 -24.819874
3587000000 -32.419949 -173.08434 -2.1400115 -13.910661 -2.1303887 -13.928368 -31.166666 -29.0238
3588000000 -32.474888 -177.29787 -2.1324964 -17.601795 -2.1358175 -17.643061 -31.232452 -32.511208
3589000000 -32.700809 179.75125 -2.1386402 -21.349764 -2.1322274 -21.391375 -31.157804 -35.755486
3590000000 -33.002861 176.79106 -2.1355894 -25.04435 -2.1349986 -25.091043 -31.183876 -39.947517
3591000000 -33.160435 171.87517 -2.1366155 -28.791649 -2.1387339 -28.78837 -31.304583 -42.734055
3592000000 -33.153076 170.49916 -2.1402595 -32.502251 -2.1355104 -32.503044 -31.195316 -46.392666
3593000000 -33.378307 165.87492 -2.1399417 -36.183487 -2.1396685 -36.2173 -31.160967 -50.364731
3594000000 -33.335957 162.43896 -2.1370275 -39.946846 -2.1395111 -39.947067 -31.198963 -53.351032
3595000000 -33.543308 160.25574 -2.1381218 -43.598671 -2.1404026 -43.66317 -31.215658 -56.211987
3596000000 -33.866516 156.13766 -2.1416593 -47.352173 -2.1361437 -47.388195 -31.126804 -59.176773
3597000000 -34.236874 152.09639 -2.1368899 -51.059708 -2.1361406 -51.109474 -31.272404 -61.48143
3598000000 -34.203186 148.16577 -2.1398959 -54.780251 -2.138958 -54.825279 -31.338509 -65.292755
3599000000 -34.346153 144.24179 -2.1412904 -58.513542 -2.1372511 -58.522972 -31.278393 -68.16748
3600000000 -34.729645 141.29649 -2.1431384 -62.202629 -2.1352065 -62.238056 -31.401194 -71.691612
3601000000 -34.907677 137.7674 -2.1403735 -65.94297 -2.1370885 -65.978951 -31.254126 -74.317963
3602000000 -34.999832 134.70953 -2.141747 -69.648842 -2.1374054 -69.665771 -31.399462 -77.814972
3603000000 -35.324997 130.65892 -2.1352715 -73.382813 -2.1396315 -73.379753 -31.601807 -81.754311
3604000000 -35.37817 127.41795 -2.1415834 -77.085083 -2.1413796 -77.1194 -31.534031 -84.444344
3605000000 -35.582394 124.56101 -2.1419001 -80.795303 -2.1446452 -80.821754 -31.604404 -88.375313
3606000000 -36.196617 119.96674 -2.1391041 -84.523247 -2.1389465 -84.535873 -31.63652 -90.481552
3607000000 -36.013813 115.92747 -2.1446671 -88.222603 -2.1390693 -88.229462 -31.746529 -93.71833
3608000000 -36.331345 113.37116 -2.1445 -91.964378 -2.1398339 -91.957199 -31.82024 -96.668816
3609000000 -36.35564 110.20353 -2.1412463 -95.664986 -2.1393015 -95.698296 -31.951176 -100.54012
3610000000 -36.564365 105.19762 -2.1444972 -99.375343 -2.1407082 -99.379379 -32.283604 -102.96461
3611000000 -36.978687 103.27727 -2.1451585 -103.10461 -2.1420979 -103.13472 -32.180386 -106.88808
3612000000 -36.814548 99.075241 -2.1426694 -106.80366 -2.143456 -106.82753 -32.370022 -111.09111
3613000000 -37.094116 95.596825 -2.1430659 -110.50338 -2.1463621 -110.54324 -32.806755 -114.62299
3614000000 -37.400856 90.717415 -2.1454227 -114.26662 -2.1440098 -114.2703 -32.672626 -119.29938
3615000000 -37.228539 89.25943 -2.1473505 -117.95043 -2.1457748 -117.98301 -32.935486 -123.48399
3616000000 -37.557266 86.378769 -2.1449807 -121.68693 -2.1414504 -121.68304 -33.342278 -128.1566
3617000000 -37.191051 83.68644 -2.1466031 -125.40656 -2.1451528 -125.41143 -33.535248 -132.30905
3618000000 -37.060005 80.468925 -2.1491704 -129.11829 -2.1414657 -129.1138 -33.682693 -136.08611
3619000000 -37.740681 77.00132 -2.1422482 -132.81638 -2.1463799 -132.86987 -33.974899 -143.6539
3620000000 -37.461544 74.651077 -2.1472843 -136.55753 -2.1471038 -136.56886 -34.408726 -148.55554
3621000000 -37.248276 73.733109 -2.1481214 -140.23257 -2.1462195 -140.27959 -34.73848 -152.71837
3622000000 -36.956425 72.190529 -2.1489971 -143.96664 -2.1450257 -144.01453 -34.900883 -159.06903
3623000000 -37.289848 70.516342 -2.1441998 -147.70529 -2.1408107 -147.69138 -34.90976 -163.99449
3624000000 -36.305534 67.836555 -2.1444249 -151.43307 -2.1443822 -151.44106 -35.002884 -172.30585
3625000000 -36.562954 69.000168 -2.1460316 -155.12149 -2.1474943 -155.1489 -35.888077 -178.76624
3626000000 -36.383854 62.335018 -2.1548324 -158.84831 -2.1470118 -158.87569 -35.592247 172.44011
3627000000 -35.92757 61.322845 -2.1494575 -162.54956 -2.1480286 -162.55885 -35.673008 164.08107
3628000000 -35.749928 61.462784 -2.143662 -166.29593 -2.1479867 -166.3089 -35.807365 158.05391
3629000000 -35.30019 59.42128 -2.1529934 -170.00323 -2.1533775 -170.01111 -35.943871 148.04477
3630000000 -35.131115 56.725704 -2.1490896 -173.69145 -2.1484663 -173.74919 -35.575527 141.08809
3631000000 -34.960098 57.335579 -2.152158 -177.41583 -2.1501231 -177.48085 -35.639198 132.72034
3632000000 -34.612976 54.516624 -2.145685 178.85162 -2.1513789 178.82954 -35.392048 123.92499
3633000000 -34.254333 53.178329 -2.1565378 175.15164 -2.1488595 175.12521 -35.179062 116.51723
3634000000 -34.101959 51.19434 -2.1541083 171.41133 -2.147243 171.39575 -34.919182 108.69552
3635000000 -33.559151 49.907574 -2.1529968 167.70099 -2.1508131 167.68832 -34.607677 102.23022
3636000000 -33.464771 47.025307 -2.1521418 163.99788 -2.1530821 163.99167 -34.339378 94.749611
3637000000 -33.289684 46.203171 -2.1542983 160.2664 -2.1485016 160.25092 -33.877464 85.869576
3638000000 -32.780949 43.697971 -2.1571832 156.57188 -2.1528854 156.51372 -33.552185 80.355698
3639000000 -32.698475 42.548409 -2.1573162 152.83426 -2.1546283 152.82173 -33.099522 73.909393
3640000000 -32.215054 41.006744 -2.1554632 149.13965 -2.1522429 149.08142 -32.881298 66.763435
3641000000 -31.984035 39.238354 -2.1518533 145.42105 -2.1538525 145.3678 -32.371021 60.807037
3642000000 -31.628986 36.735481 -2.1578844 141.69624 -2.1535332 141.67386 -32.019058 53.959507
3643000000 -31.353666 35.625637 -2.1577873 137.99565 -2.158639 137.97029 -31.798826 47.49791
3644000000 -31.152761 33.849365 -2.1562648 134.2457 -2.1562262 134.22633 -31.255756 42.333176
3645000000 -31.042904 31.32807 -2.1576383 130.54831 -2.153096 130.54498 -31.032351 36.967083
3646000000 -30.548347 29.908375 -2.1586947 126.82548 -2.1523857 126.81966 -30.663937 31.484095
3647000000 -30.521513 28.195433 -2.1597345 123.09982 -2.1580319 123.09347 -30.348444 25.746033
3648000000 -30.141436 25.192539 -2.1607316 119.37994 -2.1579804 119.34481 -29.999435 19.191359
3649000000 -30.076187 24.028099 -2.1634145 115.66864 -2.157253 115.64848 -29.731689 14.000814
3650000000 -29.913862 21.198027 -2.1628926 111.97633 -2.1611316 111.92374 -29.451939 8.9971533
3651000000 -29.570885 19.13908 -2.1593139 108.27027 -2.1600261 108.21724 -29.160458 2.7791317
3652000000 -29.315731 16.933817 -2.1655023 104.51855 -2.1584773 104.52975 -28.84157 -2.2098656
3653000000 -29.269594 15.034143 -2.1634212 100.8203 -2.162931 100.80402 -28.551781 -8.0818987
3654000000 -29.111343 12.775805 -2.1645341 97.119209 -2.1622009 97.076851 -28.331411 -12.299696
3655000000 -28.900318 11.42812 -2.1664238 93.39743 -2.1605334 93.381699 -28.062054 -16.739792
3656000000 -28.542006 8.5850973 -2.1629381 89.696548 -2.1615703 89.636948 -27.725719 -22.070185
3657000000 -28.511578 6.6087408 -2.1659758 85.977715 -2.166585 85.935982 -27.574713 -26.602621
3658000000 -28.336647 4.0988431 -2.1680646 82.249542 -2.1640866 82.253922 -27.259815 -32.073227
3659000000 -28.109053 2.2341557 -2.1697631 78.500732 -2.1697135 78.534073 -27.080532 -36.920658
3660000000 -28.014086 -0.28245127 -2.1657729 74.813232 -2.1654737 74.786407 -26.755899 -41.458958
3661000000 -27.789436 -2.8636813 -2.1700468 71.110168 -2.1642387 71.083191 -26.656853 -46.093666
3662000000 -27.735796 -4.8767376 -2.1715863 67.393143 -2.1678371 67.375351 -26.485956 -50.40263
3663000000 -27.524071 -7.1844335 -2.1661358 63.666939 -2.1654196 63.691113 -26.358631 -55.139324
3664000000 -27.395782 -8.6904774 -2.1712356 59.963818 -2.1678872 59.958679 -26.225361 -59.822186
3665000000 -27.187042 -11.815182 -2.1745522 56.28458 -2.171037 56.201553 -26.174753 -64.762367
3666000000 -27.173641 -13.675844 -2.1726198 52.543961 -2.1696606 52.497803 -26.024723 -69.000427
3667000000 -27.020487 -16.514849 -2.1733501 48.830105 -2.1711121 48.794121 -25.882427 -73.722191
3668000000 -26.939676 -17.948029 -2.1759064 45.11681 -2.1700685 45.106537 -25.868309 -78.095001
3669000000 -26.864311 -19.50794 -2.172946 41.388916 -2.1736846 41.362305 -25.784615 -82.918419
3670000000 -26.719336 -22.077684 -2.1716413 37.678738 -2.1735611 37.700676 -25.739027 -87.117401
3671000000 -26.671312 -24.157873 -2.1739998 33.985554 -2.1724532 33.942047 -25.679213 -91.814369
3672000000 -26.674025 -26.151606 -2.1684427 30.250454 -2.1724925 30.224705 -25.736528 -96.684265
3673000000 -26.543289 -27.756596 -2.1752589 26.530943 -2.1721048 26.503035 -25.731712 -101.99832
3674000000 -26.407814 -30.414803 -2.173074 22.832006 -2.1719956 22.837639 -25.779984 -106.4253
3675000000 -26.466578 -31.513865 -2.1732016 19.096346 -2.1735628 19.099266 -25.727373 -111.68729
3676000000 -26.420357 -33.602867 -2.1730525 15.406129 -2.1754835 15.368252 -25.836151 -116.08707
3677000000 -26.349709 -35.626472 -2.1759114 11.676376 -2.1772652 11.680766 -25.881062 -120.95792
3678000000 -26.303398 -37.07206 -2.1782837 7.9706841 -2.1762657 7.9660096 -25.993731 -125.39265
3679000000 -26.23962 -39.024807 -2.1757081 4.2748675 -2.1754987 4.2469077 -26.05619 -131.09354
3680000000 -26.256168 -40.561859 -2.1771729 0.5148074 -2.1753168 0.52105892 -26.137892 -136.27361
3681000000 -26.188902 -42.180126 -2.1785688 -3.1517353 -2.1741369 -3.1920738 -26.226572 -141.89247
3682000000 -26.177765 -44.150959 -2.1797552 -6.8987074 -2.1752403 -6.9047709 -26.402678 -147.23592
3683000000 -26.149881 -45.940968 -2.1777041 -10.61221 -2.1717827 -10.642527 -26.419912 -152.45622
3684000000 -26.130737 -47.462307 -2.1799011 -14.298064 -2.1768711 -14.326671 -26.490736 -157.93254
3685000000 -26.183546 -49.057167 -2.1780772 -18.031794 -2.1727667 -18.070332 -26.609581 -163.88976
3686000000 -26.142685 -50.604351 -2.1805348 -21.7411 -2.1743929 -21.738979 -26.742748 -169.35922
3687000000 -26.141342 -51.757595 -2.1824803 -25.445658 -2.1760261 -25.483078 -26.894556 -174.99524
3688000000 -26.188734 -53.834461 -2.1814339 -29.164 -2.1739416 -29.184057 -26.990702 178.50645
3689000000 -26.195766 -55.114929 -2.1815588 -32.861351 -2.1772394 -32.896049 -26.994936 173.27608
3690000000 -26.239542 -57.167755 -2.1782007 -36.588158 -2.1813133 -36.598732 -27.175772 166.97601
3691000000 -26.178905 -58.591297 -2.1772976 -40.305935 -2.1794631 -40.341896 -27.196672 161.52113
3692000000 -26.208549 -59.848244 -2.1791725 -44.012337 -2.1783037 -44.038074 -27.304327 155.4442
3693000000 -26.112267 -61.789818 -2.1873181 -47.73938 -2.1851313 -47.766838 -27.340242 149.08325
3694000000 -26.188824 -63.186687 -2.1824334 -51.464806 -2.1768541 -51.492001 -27.475479 143.98825
3695000000 -26.170458 -64.199829 -2.1813176 -55.191597 -2.1786821 -55.206448 -27.529652 137.4007
3696000000 -26.253019 -65.930206 -2.1831436 -58.864491 -2.1810634 -58.898361 -27.588081 130.34778
3697000000 -26.232412 -67.64772 -2.1803069 -62.583263 -2.1766837 -62.635098 -27.723013 124.75027
3698000000 -26.240923 -70.094185 -2.1836255 -66.306519 -2.1834586 -66.305138 -27.835627 118.59138
3699000000 -26.278605 -71.171455 -2.1835604 -70.019859 -2.1778352 -70.034271 -27.88965 112.50809
3700000000 -26.231441 -73.093124 -2.1868396 -73.739265 -2.1806893 -73.759605 -27.894276 105.50415
3701000000 -26.324251 -74.192291 -2.1801667 -77.458504 -2.1806686 -77.481049 -27.973143 99.874489
3702000000 -26.196884 -75.517899 -2.1828227 -81.187225 -2.1852632 -81.207611 -28.106176 93.165131
3703000000 -26.29472 -77.369659 -2.1839983 -84.868958 -2.1783855 -84.927002 -28.097204 87.934799
3704000000 -26.196012 -79.114998 -2.181643 -88.631943 -2.1837869 -88.622734 -28.250032 80.343307
3705000000 -26.363811 -80.814178 -2.1855574 -92.304153 -2.1830859 -92.337013 -28.306568 75.266594
3706000000 -26.453167 -81.733421 -2.1852043 -96.025169 -2.1795397 -96.059647 -28.227102 68.128983
3707000000 -26.29266 -83.921951 -2.1863356 -99.76442 -2.1831582 -99.763687 -28.289562 61.294044
3708000000 -26.35528 -85.324326 -2.1827807 -103.45554 -2.1838074 -103.48772 -28.295307 54.802212
3709000000 -26.372835 -87.386505 -2.1874928 -107.18156 -2.1856294 -107.18906 -28.150673 48.875992
3710000000 -26.381157 -88.803894 -2.1861985 -110.91438 -2.181973 -110.92575 -28.159101 42.155441
3711000000 -26.481239 -90.238304 -2.1835475 -114.5965 -2.1811457 -114.61757 -28.221596 35.656811
3712000000 -26.462097 -91.582153 -2.1840613 -118.31689 -2.1831625 -118.32729 -28.096815 29.856684
3713000000 -26.396793 -93.391068 -2.1805537 -122.0098 -2.180738 -122.06863 -28.09207 24.060347
3714000000 -26.416969 -95.110344 -2.187602 -125.7524 -2.1851726 -125.75859 -28.032171 17.420078
3715000000 -26.453766 -96.117157 -2.1839881 -129.48297 -2.1860566 -129.48431 -28.008224 11.686337
3716000000 -26.482809 -98.55056 -2.1854808 -133.19408 -2.1797805 -133.18596 -27.91193 5.2127619
3717000000 -26.567701 -100.41522 -2.1885176 -136.88661 -2.1829262 -136.91403 -27.737413 -0.82765287
3718000000 -26.441481 -101.29733 -2.1836824 -140.61369 -2.1783419 -140.65805 -27.844921 -6.5816898
3719000000 -26.591583 -103.49163 -2.1872597 -144.31972 -2.1815469 -144.34309 -27.584812 -11.833811
3720000000 -26.471018 -105.22715 -2.1878171 -148.0312 -2.1850257 -148.07022 -27.560036 -17.171738
3721000000 -26.527023 -106.30904 -2.1854131 -151.75609 -2.184854 -151.76807 -27.593615 -22.162195
3722000000 -26.554619 -107.23766 -2.189657 -155.4622 -2.1836185 -155.4841 -27.518305 -27.059053
3723000000 -26.698322 -110.22591 -2.186157 -159.19344 -2.1832335 -159.20859 -27.397343 -33.220547
3724000000 -26.711969 -111.04975 -2.1912413 -162.90771 -2.1809654 -162.91248 -27.407263 -38.112358
3725000000 -26.836649 -113.06542 -2.1905918 -166.59685 -2.1854906 -166.62126 -27.325672 -43.554394
3726000000 -26.836063 -114.57513 -2.1863406 -170.30461 -2.1855836 -170.35884 -27.434958 -49.101822
3727000000 -26.8311 -116.14471 -2.1909668 -174.02451 -2.1881559 -174.06514 -27.256628 -53.543816
3728000000 -26.872911 -118.0612 -2.184576 -177.74791 -2.1837509 -177.77936 -27.422646 -58.485981
3729000000 -27.0396 -118.72726 -2.1903741 178.51863 -2.1869209 178.49251 -27.393013 -63.684856
3730000000 -27.054365 -121.81207 -2.1878769 174.80226 -2.1841421 174.77371 -27.458794 -67.908989
3731000000 -27.146042 -123.41933 -2.1885877 171.09309 -2.1890783 171.0724 -27.390018 -72.56459
3732000000 -27.350851 -124.53035 -2.1884999 167.38187 -2.1904812 167.32001 -27.499228 -77.644043
3733000000 -27.382044 -126.34268 -2.189846 163.65569 -2.1858547 163.64583 -27.537544 -82.945015
3734000000 -27.403858 -128.26863 -2.1881092 159.92537 -2.1866331 159.95856 -27.684282 -87.762993
3735000000 -27.517315 -130.11145 -2.1892254 156.24663 -2.1868887 156.18791 -27.860296 -91.817467
3736000000 -27.651344 -130.98935 -2.1890459 152.52962 -2.1853411 152.51082 -27.876276 -97.440628
3737000000 -27.689322 -133.9046 -2.1882818 148.79417 -2.1865933 148.78951 -27.985268 -102.08314
3738000000 -27.802347 -135.11205 -2.1867056 145.07184 -2.1865406 145.04573 -28.128384 -106.16201
3739000000 -27.930964 -136.94354 -2.1931152 141.35011 -2.1902828 141.34753 -28.204054 -112.24979
3740000000 -27.94471 -138.43031 -2.1917102 137.65096 -2.1912584 137.6468 -28.289738 -117.64202
3741000000 -28.051334 -140.36575 -2.1883419 133.94687 -2.186774 133.92932 -28.470251 -122.22523
3742000000 -28.105177 -142.2002 -2.18736 130.23128 -2.1923866 130.17744 -28.705366 -127.25443
3743000000 -28.271351 -143.92265 -2.1898844 126.51192 -2.1916049 126.51295 -28.797621 -132.43777
3744000000 -28.32357 -145.23749 -2.1897409 122.7763 -2.187984 122.74706 -28.860067 -137.0368
3745000000 -28.419115 -147.44958 -2.1927888 119.05546 -2.1885402 119.05795 -29.052954 -142.2549
3746000000 -28.567001 -150.18307 -2.1884966 115.34298 -2.1911392 115.33862 -29.233427 -147.67204
3747000000 -28.528902 -151.92323 -2.1958716 111.65855 -2.1824501 111.63564 -29.394196 -152.32011
3748000000 -28.776564 -154.02057 -2.1921134 107.91238 -2.1892071 107.90623 -29.591301 -157.72487
3749000000 -28.756533 -156.28151 -2.1890998 104.21519 -2.1924703 104.16379 -29.554585 -163.39787
3750000000 -28.785728 -157.50925 -2.1892748 100.46976 -2.1872022 100.47687 -29.589231 -168.6866
3751000000 -28.907946 -159.49725 -2.1885924 96.77047 -2.1878586 96.758774 -29.804701 -174.09035
3752000000 -28.997503 -162.10019 -2.1935759 93.054413 -2.1863804 93.077316 -29.817358 -178.66426
3753000000 -29.066805 -164.59375 -2.1922209 89.369644 -2.1896517 89.326172 -29.922766 175.3065
3754000000 -29.101091 -166.89105 -2.1905925 85.618729 -2.1881607 85.600815 -29.963264 170.79575
3755000000 -29.302109 -168.66014 -2.1945503 81.902908 -2.1901755 81.876427 -30.037714 166.73129
3756000000 -29.271988 -171.2411 -2.1904886 78.203888 -2.1882391 78.211052 -30.237982 160.84969
3757000000 -29.268267 -174.36171 -2.1921597 74.486053 -2.1937394 74.443184 -30.207664 155.7594
3758000000 -29.390919 -175.9655 -2.1930025 70.736885 -2.1928978 70.740463 -30.541069 151.15927
3759000000 -29.495745 -179.31499 -2.1926756 67.03717 -2.1927323 67.01265 -30.446482 147.04558
3760000000 -29.451969 178.45375 -2.1944709 63.33252 -2.1930971 63.342846 -30.470154 140.62764
3761000000 -29.391905 176.97829 -2.1969507 59.608665 -2.1910694 59.579414 -30.670187 136.67291
3762000000 -29.448948 173.56293 -2.1966901 55.88261 -2.1950879 55.861519 -30.708984 131.0666
3763000000 -29.465391 170.06306 -2.1934152 52.194527 -2.1946342 52.140263 -30.617424 126.90344
3764000000 -29.731083 167.83926 -2.1940362 48.477524 -2.1915357 48.430687 -30.919937 122.20117
3765000000 -29.599468 166.11227 -2.1947086 44.739838 -2.1900885 44.736126 -30.787201 116.27901
3766000000 -29.706043 162.66042 -2.1909583 41.044128 -2.1934211 41.023724 -30.914619 111.08453
3767000000 -29.763 158.93506 -2.1984615 37.334259 -2.191252 37.316502 -31.037081 106.74969
3768000000 -29.835398 156.71198 -2.1976452 33.610058 -2.1974294 33.578995 -30.971432 101.62327
3769000000 -29.789417 154.00829 -2.1956394 29.874128 -2.1920898 29.838095 -30.925373 97.048462
3770000000 -29.910849 150.98595 -2.1956539 26.164829 -2.196517 26.144123 -30.969343 91.937317
3771000000 -29.951366 148.62611 -2.1958916 22.464247 -2.1956062 22.443884 -31.047609 87.008865
3772000000 -30.087742 145.27 -2.1970806 18.736439 -2.1939843 18.687803 -30.867535 82.1343
3773000000 -29.952976 141.43811 -2.1952801 15.031576 -2.1962368 14.988101 -31.034508 76.242729
3774000000 -29.941628 138.49298 -2.1990516 11.292145 -2.1983311 11.282263 -30.832672 70.775658
3775000000 -30.16139 134.61163 -2.203444 7.5826321 -2.1978991 7.5725918 -30.726898 65.897316
3776000000 -30.13649 130.72771 -2.1991057 3.8862569 -2.1962929 3.8431263 -30.773888 60.935314
3777000000 -30.186289 128.62617 -2.1993206 0.16662684 -2.1954899 0.11823227 -30.68228 56.921898
3778000000 -30.225317 123.96413 -2.1994305 -3.6145322 -2.1984959 -3.593822 -30.437557 52.39645
3779000000 -30.223375 120.7636 -2.2014434 -7.2941341 -2.1955822 -7.2950263 -30.431389 46.882816
3780000000 -30.214432 117.4867 -2.200985 -10.987215 -2.1980858 -11.005879 -30.257465 41.860874
3781000000 -30.370823 113.9655 -2.2033174 -14.722661 -2.2004251 -14.733121 -30.084929 37.556202
3782000000 -30.182714 110.07185 -2.2012599 -18.423325 -2.201189 -18.443806 -29.96685 33.691841
3783000000 -30.318068 105.80045 -2.1985106 -22.153074 -2.2015164 -22.16695 -29.8423 28.838541
3784000000 -30.13662 103.26476 -2.2068491 -25.856932 -2.2055387 -25.861616 -29.641272 23.10988
3785000000 -30.125023 99.849953 -2.2006888 -29.57902 -2.2008655 -29.574842 -29.43878 19.37661
3786000000 -30.184521 95.64328 -2.2067187 -33.297047 -2.2017446 -33.312729 -29.353033 14.451922
3787000000 -30.173157 92.069397 -2.2026224 -37.017574 -2.1983638 -37.042324 -29.129593 11.57573
3788000000 -30.108509 88.463341 -2.2056212 -40.722996 -2.2033334 -40.765793 -28.901758 6.4356031
3789000000 -29.97938 85.185822 -2.2049296 -44.434265 -2.2010975 -44.488506 -28.871561 1.8925278
3790000000 -29.99412 81.597801 -2.204144 -48.167065 -2.201468 -48.202499 -28.67075 -2.0266137
3791000000 -29.948462 78.76281 -2.203409 -51.882732 -2.207046 -51.879936 -28.557056 -6.3483658
3792000000 -29.792959 75.35006 -2.2090681 -55.572433 -2.2020743 -55.593082 -28.431482 -9.9461899
3793000000 -29.755253 71.381882 -2.2034469 -59.313553 -2.2073255 -59.316074 -28.317713 -14.314479
3794000000 -29.66979 67.930717 -2.2072341 -63.021915 -2.2044177 -63.050419 -28.170364 -18.378674
3795000000 -29.685589 64.69416 -2.2045872 -66.717247 -2.2047718 -66.751762 -28.023138 -23.072605
3796000000 -29.499758 60.850449 -2.2071924 -70.456482 -2.2049451 -70.472946 -27.883049 -27.413973
3797000000 -29.365993 57.804935 -2.2106299 -74.176849 -2.2035079 -74.168945 -27.835548 -30.89566
3798000000 -29.367023 55.25573 -2.2116942 -77.885933 -2.2073267 -77.926666 -27.761189 -36.478298
3799000000 -29.370277 51.805534 -2.2096636 -81.615013 -2.2028441 -81.630196 -27.667683 -39.4114
3800000000 -29.112358 48.793148 -2.2109473 -85.308792 -2.2089727 -85.332558 -27.547123 -44.056324
3801000000 -29.084299 46.438446 -2.2107689 -89.03653 -2.2077847 -89.089699 -27.557352 -49.707939
3802000000 -29.08375 43.785469 -2.214514 -92.754074 -2.2084122 -92.752174 -27.53685 -53.23534
3803000000 -28.870972 40.800549 -2.2068284 -96.471352 -2.2118211 -96.479111 -27.490051 -57.62764
3804000000 -28.803568 38.269203 -2.2131939 -100.1342 -2.2085757 -100.20069 -27.367247 -62.234726
3805000000 -28.835968 34.722759 -2.213593 -103.90103 -2.2075686 -103.92325 -27.337923 -66.985535
3806000000 -28.595585 32.403973 -2.2139304 -107.59974 -2.2108951 -107.60074 -27.256596 -71.10376
3807000000 -28.623386 30.447762 -2.2117777 -111.33498 -2.2115288 -111.33606 -27.082952 -76.232361
3808000000 -28.377056 27.861635 -2.2154679 -115.01945 -2.2090471 -115.06809 -27.099882 -80.907181
3809000000 -28.464167 25.541298 -2.2073185 -118.77062 -2.210362 -118.79356 -27.042746 -85.240311
3810000000 -28.464352 22.524105 -2.2121356 -122.4529 -2.2093537 -122.48936 -27.061077 -90.956001
3811000000 -28.297512 20.88973 -2.2186034 -126.20661 -2.2087393 -126.21434 -27.103197 -95.821671
3812000000 -28.147509 18.113941 -2.2147191 -129.91963 -2.2121964 -129.91365 -26.994492 -100.68313
3813000000 -28.141817 17.079054 -2.2141304 -133.61247 -2.2106295 -133.62558 -27.037739 -104.94091
3814000000 -28.058752 14.397587 -2.2167258 -137.34586 -2.2156508 -137.32158 -27.007917 -110.10683
3815000000 -28.04071 12.896693 -2.211915 -141.04294 -2.214416 -141.06448 -26.930889 -114.7944
3816000000 -27.845509 9.9171667 -2.215812 -144.73456 -2.2147837 -144.79298 -26.928051 -120.3735
3817000000 -27.833605 7.9765563 -2.2130246 -148.48645 -2.2158244 -148.48351 -26.913267 -125.45377
3818000000 -27.839409 6.3918915 -2.215596 -152.18346 -2.2137384 -152.20213 -26.884285 -130.25259
3819000000 -27.72998 3.7345772 -2.2168055 -155.92006 -2.2127233 -155.92982 -26.903749 -135.16881
3820000000 -27.540161 2.2542477 -2.2186658 -159.60452 -2.2180817 -159.62289 -26.958885 -140.24771
3821000000 -27.683092 0.26241353 -2.2178454 -163.34114 -2.2176349 -163.35536 -26.960684 -146.38689
3822000000 -27.487055 -1.1847262 -2.2152562 -167.06631 -2.2161975 -167.06119 -26.976532 -150.94942
3823000000 -27.562363 -3.8376276 -2.2229242 -170.77068 -2.2102129 -170.76892 -26.972086 -156.20662
3824000000 -27.378376 -4.8436666 -2.2202487 -174.47379 -2.2146471 -174.50883 -27.029051 -161.76323
3825000000 -27.259085 -7.2073498 -2.2194512 -178.18684 -2.2185218 -178.19936 -27.062252 -167.20912
3826000000 -27.20133 -9.2752762 -2.2230513 178.09906 -2.2185094 178.05891 -27.091047 -172.47858
3827000000 -27.20434 -10.918073 -2.2160292 174.39882 -2.2159667 174.34433 -27.253241 -178.46083
3828000000 -27.099749 -12.627817 -2.2211781 170.66499 -2.2142026 170.64502 -27.228374 176.74335
3829000000 -27.030863 -14.425776 -2.2185283 166.95558 -2.2217839 166.91397 -27.291824 170.55905
3830000000 -26.94903 -15.69419 -2.2208867 163.21941 -2.2145867 163.19113 -27.362495 164.69598
3831000000 -26.865835 -17.980375 -2.2246244 159.50142 -2.216059 159.5173 -27.418982 159.41092
3832000000 -26.888433 -19.644264 -2.2205768 155.82956 -2.2202213 155.77036 -27.588652 153.6895
3833000000 -26.738153 -21.468252 -2.2265534 152.08733 -2.2174973 152.07616 -27.55447 147.40552
3834000000 -26.69219 -22.813442 -2.223798 148.3661 -2.220453 148.3602 -27.572342 141.37157
3835000000 -26.653183 -24.51956 -2.2262025 144.63638 -2.220166 144.64198 -27.734724 135.12967
3836000000 -26.463377 -26.479164 -2.2245023 140.95528 -2.226965 140.89021 -27.71595 128.75749
3837000000 -26.46447 -27.801373 -2.2263274 137.2236 -2.2186704 137.20432 -27.653759 121.8313
3838000000 -26.37608 -29.652861 -2.2279992 133.49841 -2.2228565 133.49301 -27.799772 116.25818
3839000000 -26.359722 -31.258535 -2.2238953 129.79349 -2.224884 129.75351 -27.793653 110.02616
3840000000 -26.220646 -32.793015 -2.2248979 126.09722 -2.2241821 126.05102 -27.754177 103.22301
3841000000 -26.22172 -33.931599 -2.2220995 122.37194 -2.2222147 122.34724 -27.604979 96.504768
3842000000 -26.102295 -36.201904 -2.2287459 118.65567 -2.225636 118.61297 -27.737799 90.199066
3843000000 -26.08526 -37.587086 -2.2259557 114.93621 -2.2283845 114.92247 -27.709877 83.933487
3844000000 -26.023483 -38.939419 -2.2257755 111.2097 -2.2273996 111.1927 -27.617199 78.119812
3845000000 -25.990171 -40.841145 -2.2294881 107.49912 -2.2260094 107.45779 -27.547941 71.610016
3846000000 -25.851801 -42.316868 -2.2264645 103.81159 -2.226455 103.75969 -27.395802 64.793877
3847000000 -25.868469 -43.980782 -2.2288101 100.07167 -2.2258456 100.07001 -27.259483 58.324551
3848000000 -25.793859 -46.094185 -2.2319214 96.369507 -2.2276061 96.323586 -27.308088 52.910637
3849000000 -25.677452 -47.602303 -2.2274168 92.625992 -2.2285237 92.634773 -27.260477 46.767876
3850000000 -25.744152 -48.304859 -2.2301738 88.934265 -2.2282798 88.936325 -27.056044 41.181351
3851000000 -25.668663 -50.110218 -2.2300963 85.22686 -2.2293739 85.207939 -26.945473 34.879295
3852000000 -25.743555 -51.962242 -2.2288005 81.511086 -2.2312376 81.478508 -26.8626 29.076799
3853000000 -25.651798 -53.510689 -2.232758 77.763603 -2.2281826 77.789993 -26.752846 22.878778
3854000000 -25.600445 -55.435516 -2.2317958 74.08757 -2.2254839 74.070541 -26.788452 17.121395
3855000000 -25.578184 -56.555779 -2.231483 70.371101 -2.2288377 70.330383 -26.665714 11.47879
3856000000 -25.513853 -58.41066 -2.2343771 66.668144 -2.2263496 66.619606 -26.642664 5.8262234
3857000000 -25.446318 -59.940205 -2.2309339 62.92997 -2.2290158 62.906452 -26.608547 -0.78258979
3858000000 -25.507578 -61.142639 -2.2343898 59.240005 -2.226244 59.18428 -26.494728 -5.9912429
3859000000 -25.442184 -63.422829 -2.23368 55.506435 -2.2356153 55.477459 -26.502111 -12.006805
3860000000 -25.39912 -64.722191 -2.2338269 51.792278 -2.230267 51.776394 -26.308048 -17.542757
3861000000 -25.408411 -66.492088 -2.2343421 48.08408 -2.234472 48.072174 -26.352896 -23.098236
3862000000 -25.402367 -67.540794 -2.2334397 44.332912 -2.2305315 44.364952 -26.289541 -29.317812
3863000000 -25.469749 -69.597588 -2.2330635 40.637196 -2.2311261 40.65136 -26.295799 -35.335049
3864000000 -25.55127 -70.689461 -2.2351229 36.948078 -2.2365935 36.925308 -26.177412 -40.587296
3865000000 -25.418129 -71.954681 -2.2317092 33.208965 -2.2314687 33.230389 -26.158102 -46.805561
3866000000 -25.413317 -73.962982 -2.23611 29.491488 -2.2361772 29.507978 -26.123022 -52.291988
3867000000 -25.339922 -75.450584 -2.2334177 25.799084 -2.2320712 25.765408 -26.083824 -58.003006
3868000000 -25.340414 -76.440079 -2.2356873 22.079708 -2.2373724 22.069416 -26.016439 -63.635365
3869000000 -25.384657 -78.811455 -2.2378128 18.388756 -2.236109 18.34547 -25.928213 -68.820709
3870000000 -25.338226 -79.981796 -2.2373836 14.64062 -2.2313907 14.623377 -25.950455 -75.757828
3871000000 -25.373772 -81.242653 -2.2363665 10.918962 -2.2311311 10.905564 -25.91744 -80.577301
3872000000 -25.32774 -82.225403 -2.2368507 7.2516527 -2.2327242 7.1861472 -25.88287 -86.498627
3873000000 -25.447269 -83.797974 -2.2336493 3.4829144 -2.2363348 3.4950674 -25.723713 -92.372375
3874000000 -25.334631 -85.707664 -2.236233 -0.19791557 -2.2363708 -0.22245894 -25.811701 -97.498398
3875000000 -25.343275 -87.188492 -2.2354577 -3.9380524 -2.2345703 -3.9195328 -25.73012 -102.79065
3876000000 -25.244064 -88.704193 -2.2390718 -7.6702042 -2.2385633 -7.6567283 -25.857891 -108.68803
3877000000 -25.220774 -90.324272 -2.2415793 -11.351954 -2.2317054 -11.340194 -25.776625 -113.70438
3878000000 -25.215824 -91.552505 -2.2359123 -15.077687 -2.2352693 -15.055771 -25.752604 -119.55638
3879000000 -25.170729 -93.008278 -2.2416675 -18.800795 -2.2351067 -18.793257 -25.775576 -124.64227
3880000000 -25.195457 -94.646935 -2.2417269 -22.491949 -2.2332306 -22.499105 -25.722862 -130.29898
3881000000 -25.060127 -96.058212 -2.2373481 -26.214897 -2.2393627 -26.213888 -25.812243 -135.94316
3882000000 -25.092192 -97.76107 -2.2392299 -29.927454 -2.2392828 -29.956659 -25.855225 -140.86598
3883000000 -25.124147 -99.373665 -2.2408404 -33.652752 -2.2381868 -33.661148 -25.833462 -146.16083
3884000000 -25.061205 -100.60809 -2.2428305 -37.352882 -2.2379878 -37.369728 -25.7649 -152.0482
3885000000 -25.063957 -102.82678 -2.242053 -41.037697 -2.2376285 -41.090946 -25.808605 -157.61946
3886000000 -25.06526 -104.31905 -2.2418075 -44.786434 -2.237896 -44.785675 -25.823885 -162.79918
3887000000 -25.04207 -105.97661 -2.2385712 -48.487602 -2.2397468 -48.504215 -25.890118 -167.94591
3888000000 -25.087349 -106.8942 -2.2490034 -52.192795 -2.2426686 -52.21653 -26.014639 -173.55632
3889000000 -25.118008 -109.10068 -2.2407975 -55.931282 -2.2395382 -55.950203 -26.082762 -177.91281
3890000000 -25.076912 -110.84969 -2.2367558 -59.640331 -2.2475057 -59.659599 -26.144211 175.7614
3891000000 -25.090433 -112.57592 -2.2432492 -63.336823 -2.2404037 -63.37101 -26.214205 170.09404
3892000000 -24.948793 -114.34488 -2.2417107 -67.047165 -2.241673 -67.111351 -26.308002 164.55392
3893000000 -25.025654 -116.29502 -2.2460334 -70.756035 -2.2441144 -70.772934 -26.270668 158.78323
3894000000 -25.129713 -117.34435 -2.2431905 -74.491364 -2.242821 -74.504799 -26.439848 153.33189
3895000000 -25.005207 -119.81242 -2.2418635 -78.180321 -2.2446344 -78.229515 -26.50139 147.96387
3896000000 -25.035168 -121.10417 -2.2452898 -81.932686 -2.2440922 -81.955688 -26.570301 142.06593
3897000000 -25.051292 -122.8129 -2.2438071 -85.622749 -2.2417233 -85.66951 -26.701244 136.30943
3898000000 -25.055717 -125.10178 -2.247175 -89.338799 -2.2438362 -89.383118 -26.78101 130.8775
3899000000 -25.165016 -126.25278 -2.2430313 -93.058067 -2.2427888 -93.081474 -26.757032 125.02171
3900000000 -25.156868 -128.76164 -2.2488196 -96.747009 -2.2433102 -96.786934 -26.800577 119.58071
3901000000 -25.182173 -130.54691 -2.2412679 -100.48573 -2.2404354 -100.50214 -27.012409 113.6308
3902000000 -25.269131 -132.58409 -2.2439182 -104.18056 -2.2426109 -104.22793 -26.827776 107.91087
3903000000 -25.247725 -134.53151 -2.2440913 -107.92499 -2.2412457 -107.91352 -26.937393 102.39137
3904000000 -25.351822 -136.91057 -2.2455928 -111.64388 -2.2422135 -111.66152 -27.068624 96.82679
3905000000 -25.416271 -138.32123 -2.2433181 -115.33961 -2.2447245 -115.36315 -27.077349 90.846878
3906000000 -25.38217 -140.68236 -2.2489109 -119.04838 -2.2453341 -119.08978 -27.149734 85.866295
3907000000 -25.431438 -142.87018 -2.2452104 -122.76344 -2.2436218 -122.79083 -27.202438 80.382103
3908000000 -25.48988 -144.50488 -2.2491081 -126.50822 -2.2428434 -126.49071 -27.183128 74.731636
3909000000 -25.539482 -147.03874 -2.2444508 -130.20496 -2.2419055 -130.21974 -27.161812 69.567352
3910000000 -25.552237 -149.44597 -2.2483683 -133.8979 -2.2451248 -133.93999 -27.168348 63.646694
3911000000 -25.700531 -151.31401 -2.2495518 -137.64255 -2.2476976 -137.62341 -27.219488 59.096329
3912000000 -25.78021 -153.57452 -2.2494457 -141.32779 -2.2470469 -141.35922 -27.27775 52.964329
3913000000 -25.869865 -156.30344 -2.2511802 -145.03922 -2.2418735 -145.06723 -27.287008 48.098587
3914000000 -25.875275 -157.60657 -2.2456913 -148.78908 -2.2472134 -148.77109 -27.344883 42.96167
3915000000 -26.033083 -160.22418 -2.2439299 -152.48936 -2.2495942 -152.48656 -27.359081 37.534508
3916000000 -26.136362 -162.58821 -2.2518201 -156.21567 -2.2476225 -156.23293 -27.362692 32.930904
3917000000 -26.164255 -164.44063 -2.2399101 -159.94801 -2.2433333 -159.92461 -27.446129 28.026045
3918000000 -26.381317 -167.20021 -2.2508459 -163.64148 -2.2403858 -163.66528 -27.50522 22.628229
3919000000 -26.525236 -169.28497 -2.2517288 -167.34764 -2.2462463 -167.38426 -27.656561 18.275331
3920000000 -26.593801 -171.78629 -2.2504249 -171.04652 -2.2472367 -171.05304 -27.711845 12.671776
3921000000 -26.784515 -173.96996 -2.2514081 -174.80334 -2.2382007 -174.77165 -27.812643 7.7013903
3922000000 -26.879435 -176.86371 -2.2453444 -178.49957 -2.2467203 -178.51414 -27.856655 2.2162495
3923000000 -27.04353 -177.87236 -2.2456362 177.80156 -2.2449396 177.78629 -27.889189 -2.2053921
3924000000 -27.159859 179.12294 -2.2495856 174.06157 -2.2460117 174.05096 -28.050877 -7.0667105
3925000000 -27.267567 176.66693 -2.2457209 170.34998 -2.2426322 170.32961 -28.155882 -12.73927
3926000000 -27.49868 174.87926 -2.2474344 166.6571 -2.245852 166.65544 -28.310743 -17.557137
3927000000 -27.583145 172.3891 -2.2441087 162.89597 -2.2384918 162.89461 -28.396952 -21.672939
3928000000 -27.857479 170.01045 -2.2451892 159.21475 -2.24891 159.17712 -28.457268 -27.286634
3929000000 -27.960846 167.5159 -2.2466688 155.48073 -2.2405381 155.48172 -28.548082 -32.231716
3930000000 -28.115246 165.46054 -2.2463796 151.76892 -2.2430136 151.73833 -28.640703 -36.645782
3931000000 -28.313351 163.26245 -2.240185 148.06635 -2.2478778 148.04773 -28.667692 -41.902973
3932000000 -28.462793 161.49448 -2.2511945 144.33434 -2.2457659 144.32362 -28.751501 -46.904781
3933000000 -28.6751 159.85666 -2.2498598 140.64774 -2.2443523 140.59233 -28.85368 -51.284325
3934000000 -28.802011 157.05038 -2.2478886 136.89502 -2.2451539 136.90373 -28.98575 -56.285801
3935000000 -29.029137 155.1225 -2.2460837 133.19885 -2.2499011 133.1593 -29.17975 -60.899368
3936000000 -29.123617 153.25432 -2.248148 129.47853 -2.2442193 129.46109 -29.150923 -65.771095
3937000000 -29.340366 150.99603 -2.2495582 125.77533 -2.2441373 125.75228 -29.298975 -70.664619
3938000000 -29.505085 148.42892 -2.2504609 122.02384 -2.2421958 122.04786 -29.478184 -76.48732
3939000000 -29.551647 147.75899 -2.24945 118.32385 -2.2456996 118.30402 -29.364483 -80.254799
3940000000 -29.83214 144.00519 -2.2472649 114.61761 -2.2447815 114.61485 -29.504107 -85.691315
3941000000 -29.995436 143.28239 -2.2502756 110.92044 -2.2481463 110.89107 -29.614983 -90.5271
3942000000 -30.192545 140.38313 -2.2501054 107.17026 -2.2465272 107.14677 -29.617828 -94.879311
3943000000 -30.21686 138.21155 -2.2448735 103.46449 -2.2482896 103.46675 -29.890678 -100.0929
3944000000 -30.421759 136.18275 -2.2449577 99.729195 -2.2451408 99.743347 -29.782326 -104.26212
3945000000 -30.327362 134.17819 -2.2476737 96.009247 -2.2411253 96.002937 -29.981813 -109.52087
3946000000 -30.472973 130.85913 -2.2506108 92.301399 -2.2453544 92.289513 -29.99608 -113.3952
3947000000 -30.59491 129.91577 -2.2499268 88.557388 -2.2454934 88.590736 -30.056684 -119.80527
3948000000 -30.540497 127.71497 -2.2513812 84.869148 -2.2491047 84.837761 -30.116171 -125.23272
3949000000 -30.803587 124.96942 -2.2480998 81.150833 -2.2476659 81.132324 -30.197599 -128.81248
3950000000 -30.791065 122.26353 -2.2499754 77.404503 -2.2467821 77.388954 -30.36721 -133.52744
3951000000 -30.930899 119.42482 -2.2519562 73.71611 -2.2460403 73.7229 -30.370022 -138.07994
3952000000 -30.941332 117.66302 -2.2508121 69.971443 -2.2432911 69.986412 -30.305571 -144.04872
3953000000 -30.893665 114.79537 -2.2491329 66.263893 -2.2519658 66.248917 -30.402128 -149.51105
3954000000 -30.947329 112.69574 -2.2504725 62.537003 -2.2512488 62.55571 -30.470098 -154.36002
3955000000 -30.940281 110.39271 -2.2504835 58.848515 -2.2506187 58.839451 -30.455063 -159.55843
3956000000 -30.908524 107.43829 -2.2514589 55.083252 -2.2487783 55.120956 -30.539896 -164.26566
3957000000 -30.832453 103.60113 -2.2507355 51.435257 -2.2494621 51.38287 -30.631603 -168.72778
3958000000 -30.772684 102.09323 -2.2514815 47.690475 -2.2477062 47.676273 -30.739075 -174.3654
3959000000 -30.742725 99.496948 -2.2529671 43.977654 -2.2503076 43.960751 -30.73275 179.99469
3960000000 -30.757086 97.138222 -2.2491999 40.272293 -2.2522237 40.224335 -30.589231 174.83272
3961000000 -30.604488 93.365974 -2.2583642 36.583385 -2.2504034 36.520672 -30.653942 169.59219
3962000000 -30.503717 91.66143 -2.2508168 32.831734 -2.2540305 32.778961 -30.520559 163.43211
3963000000 -30.344398 87.199799 -2.2530811 29.121202 -2.2550528 29.069897 -30.611814 158.16248
3964000000 -30.337307 85.440392 -2.2570851 25.370739 -2.2537448 25.401989 -30.561127 153.63416
3965000000 -30.136005 83.766457 -2.2552612 21.697098 -2.2518718 21.613096 -30.472759 148.71376
3966000000 -30.209269 80.498665 -2.2536051 17.966648 -2.255811 17.949337 -30.341871 141.65401
3967000000 -29.949921 78.005257 -2.2596703 14.250643 -2.2544765 14.227922 -30.341185 136.20601
3968000000 -29.852032 74.553879 -2.2555637 10.523556 -2.2512472 10.486085 -30.076374 131.89293
3969000000 -29.69916 72.155952 -2.2588952 6.8251281 -2.2552927 6.7641873 -29.846409 126.05654
3970000000 -29.499245 69.416229 -2.2606726 3.0785978 -2.2595265 3.0739236 -29.865417 120.26173
3971000000 -29.348505 66.180908 -2.2547204 -0.61384338 -2.2552617 -0.64793169 -29.738997 115.67939
3972000000 -29.238623 62.961342 -2.2605872 -4.3610487 -2.2571397 -4.3764033 -29.462143 110.36936
3973000000 -29.095453 59.981689 -2.2573211 -8.0642023 -2.2609754 -8.0796051 -29.476404 105.40356
3974000000 -29.001947 57.862473 -2.2644417 -11.788781 -2.254941 -11.789555 -29.357021 100.10791
3975000000 -28.863899 54.533672 -2.262109 -15.493805 -2.2592516 -15.501895 -29.118608 95.394707
3976000000 -28.705631 51.662201 -2.2642415 -19.210932 -2.2603402 -19.246437 -28.906532 89.046272
3977000000 -28.4818 49.382 -2.25999 -22.957815 -2.2570529 -22.928314 -28.846117 85.054329
3978000000 -28.37936 45.75481 -2.2631269 -26.652292 -2.2589355 -26.681942 -28.639713 79.766632
3979000000 -28.255331 42.885307 -2.2613897 -30.350649 -2.2640014 -30.406216 -28.480322 74.510597
3980000000 -28.120253 39.94735 -2.2686732 -34.068176 -2.2620931 -34.095871 -28.257347 70.109673
3981000000 -28.023144 37.143879 -2.2627742 -37.768135 -2.2628379 -37.813171 -28.181734 63.696869
3982000000 -27.856791 34.207447 -2.2636533 -41.501762 -2.2676249 -41.533474 -28.025105 59.515747
3983000000 -27.826912 31.021719 -2.2672365 -45.218002 -2.2656989 -45.226181 -27.896019 54.757977
3984000000 -27.636297 27.845196 -2.2701914 -48.900753 -2.2675874 -48.968155 -27.664568 49.453842
3985000000 -27.407803 24.493795 -2.2677121 -52.632225 -2.2624948 -52.676033 -27.537853 45.702568
3986000000 -27.362484 21.48082 -2.268151 -56.347546 -2.2663295 -56.400806 -27.388323 40.082386
3987000000 -27.20645 18.856663 -2.2710795 -60.097435 -2.2654445 -60.09264 -27.185102 35.538555
3988000000 -27.099117 16.571751 -2.2694736 -63.783386 -2.2671113 -63.793278 -27.096619 31.013628
3989000000 -26.966795 12.63251 -2.2708812 -67.519936 -2.2678182 -67.506096 -27.009226 25.538349
3990000000 -26.899237 10.121253 -2.274477 -71.23053 -2.2684469 -71.241356 -26.708342 20.707142
3991000000 -26.679571 7.6681595 -2.2721114 -74.948738 -2.2681146 -74.955513 -26.647722 15.358589
3992000000 -26.583624 4.8263702 -2.2719858 -78.671036 -2.2713888 -78.667297 -26.576771 11.232042
3993000000 -26.645765 2.0655842 -2.2708459 -82.362167 -2.2741697 -82.3908 -26.415066 5.660079
3994000000 -26.497099 -0.94730479 -2.2732236 -86.104591 -2.270191 -86.085892 -26.358828 1.3738525
3995000000 -26.41478 -3.0396852 -2.274658 -89.802101 -2.272059 -89.837639 -26.2222 -3.3337317
3996000000 -26.317335 -5.5117297 -2.2795582 -93.478752 -2.2682602 -93.53994 -26.132072 -8.3254042
3997000000 -26.197565 -8.4737072 -2.2715948 -97.21299 -2.2735283 -97.257675 -25.932428 -12.65974
3998000000 -26.186686 -10.639437 -2.2790437 -100.92117 -2.275521 -100.97071 -26.00466 -17.736837
3999000000 -26.127794 -13.493033 -2.2765646 -104.66161 -2.2697961 -104.69438 -25.798834 -22.551054
4000000000 -26.058517 -16.037592 -2.2759705 -108.37947 -2.2708895 -108.40254 -25.774412 -27.414923
4001000000 -25.952629 -18.182304 -2.2730992 -112.07361 -2.2739718 -112.09634 -25.705349 -32.264042
4002000000 -25.878103 -20.277853 -2.2749314 -115.7894 -2.2746134 -115.83186 -25.625494 -37.564075
4003000000 -25.785748 -22.45599 -2.2793543 -119.50446 -2.276264 -119.52109 -25.557169 -42.021366
4004000000 -25.766211 -24.77005 -2.2775218 -123.23405 -2.2753909 -123.25701 -25.505169 -47.100666
4005000000 -25.606836 -26.455778 -2.2804487 -126.92854 -2.2756405 -126.94276 -25.452642 -51.299469
4006000000 -25.652681 -29.768574 -2.2776182 -130.65068 -2.274868 -130.67494 -25.532076 -57.586048
4007000000 -25.63072 -30.705099 -2.2834365 -134.36934 -2.2776291 -134.39424 -25.453005 -62.268589
4008000000 -25.547283 -32.571693 -2.2813191 -138.09488 -2.2773714 -138.10646 -25.459351 -67.042694
4009000000 -25.515024 -35.093395 -2.2839937 -141.78781 -2.2731411 -141.84836 -25.348541 -72.451973
4010000000 -25.52919 -36.984871 -2.2804365 -145.50826 -2.2765927 -145.55142 -25.390837 -77.091171
4011000000 -25.431393 -38.870125 -2.2832339 -149.2605 -2.2787633 -149.23531 -25.388636 -82.510704
4012000000 -25.404142 -41.152107 -2.2830949 -152.93529 -2.272433 -152.92867 -25.322693 -87.842476
4013000000 -25.350138 -42.344849 -2.285466 -156.65839 -2.2773032 -156.6702 -25.367031 -92.993629
4014000000 -25.341555 -43.753235 -2.2791736 -160.37781 -2.2831566 -160.39294 -25.448721 -98.155479
4015000000 -25.339865 -46.381477 -2.2834051 -164.08171 -2.279283 -164.10898 -25.444017 -103.62093
4016000000 -25.287907 -47.681133 -2.2812829 -167.82562 -2.282208 -167.82349 -25.425232 -108.95797
4017000000 -25.149277 -49.258991 -2.2831624 -171.51218 -2.2809713 -171.52635 -25.444349 -114.7649
4018000000 -25.295938 -51.531788 -2.279357 -175.22218 -2.2809217 -175.26817 -25.485117 -119.82082
4019000000 -25.19573 -52.637215 -2.2842262 -178.93704 -2.2833464 -179.00397 -25.534735 -125.21329
4020000000 -25.148409 -54.722515 -2.2833726 177.36441 -2.2808421 177.34711 -25.587969 -130.85712
4021000000 -25.093981 -55.522537 -2.2862976 173.61287 -2.2824194 173.59734 -25.540161 -137.21896
4022000000 -25.134094 -57.385036 -2.2863538 169.925 -2.2810702 169.90141 -25.517485 -142.30789
4023000000 -24.988001 -59.127827 -2.2858729 166.18616 -2.2794051 166.17116 -25.565786 -148.32843
4024000000 -25.024521 -60.630135 -2.28251 162.46957 -2.2867477 162.44759 -25.547644 -153.5255
4025000000 -24.973196 -62.296757 -2.2830775 158.78136 -2.286047 158.71815 -25.670811 -159.16516
4026000000 -25.008245 -64.28273 -2.2823248 155.04819 -2.2836568 155.05309 -25.660824 -164.96577
4027000000 -24.92761 -64.983337 -2.2835548 151.33731 -2.2847075 151.28951 -25.667273 -171.0475
4028000000 -24.876171 -66.669426 -2.2853074 147.61076 -2.2844758 147.61777 -25.668699 -176.52908
4029000000 -24.852028 -68.245331 -2.2849853 143.92226 -2.2853162 143.90637 -25.650858 177.21388
4030000000 -24.775949 -69.943184 -2.2868497 140.1962 -2.2884398 140.17442 -25.757767 171.7364
4031000000 -24.680073 -71.797066 -2.291219 136.46539 -2.284147 136.44267 -25.708776 165.41759
4032000000 -24.577507 -73.74736 -2.289619 132.75806 -2.285912 132.74081 -25.71096 159.18831
4033000000 -24.543074 -74.655502 -2.2900438 129.08621 -2.2869112 129.00867 -25.676655 154.04294
4034000000 -24.495481 -76.526352 -2.2911673 125.34755 -2.2884471 125.31557 -25.665779 148.0069
4035000000 -24.437815 -78.42041 -2.2900233 121.64011 -2.2873294 121.61129 -25.703962 141.2926
4036000000 -24.465725 -79.683533 -2.2929401 117.89923 -2.289885 117.86256 -25.793396 135.88829
4037000000 -24.373915 -81.872353 -2.2923515 114.23205 -2.2904534 114.19437 -25.675858 130.05728
4038000000 -24.31019 -83.17643 -2.2927272 110.47616 -2.2874403 110.47881 -25.676754 124.58745
4039000000 -24.20142 -84.590912 -2.2911251 106.78259 -2.2898705 106.75902 -25.650034 117.81058
4040000000 -24.148176 -86.764114 -2.2952242 103.078 -2.2886367 103.01779 -25.640942 111.9581
4041000000 -24.107298 -88.425758 -2.2915328 99.343773 -2.2925622 99.311356 -25.614975 106.02853
4042000000 -24.039854 -90.35318 -2.2963545 95.643539 -2.290843 95.598549 -25.617218 100.42171
4043000000 -24.022289 -92.197685 -2.2996686 91.916237 -2.2927337 91.886635 -25.624926 94.834679
4044000000 -23.959095 -93.66555 -2.2948966 88.188896 -2.2943885 88.173744 -25.596146 88.560417
4045000000 -23.87133 -95.891701 -2.3000748 84.486603 -2.2944453 84.452042 -25.628389 82.399132
4046000000 -23.892944 -97.535126 -2.3009198 80.753754 -2.2931116 80.776619 -25.438574 76.643845
4047000000 -23.896004 -99.105347 -2.2987702 77.052757 -2.2958391 77.057816 -25.358849 70.552269
4048000000 -23.90523 -100.8881 -2.3004446 73.38765 -2.2930791 73.345222 -25.381317 64.887466
4049000000 -23.754469 -102.72906 -2.2981291 69.654724 -2.2934694 69.613998 -25.43194 58.703529
4050000000 -23.755466 -105.22804 -2.3022287 65.907196 -2.2979796 65.891693 -25.335157 53.659588
4051000000 -23.770664 -106.48778 -2.2963274 62.205807 -2.296844 62.189262 -25.286587 47.807201
4052000000 -23.784182 -108.23503 -2.2979476 58.53434 -2.2954469 58.480881 -25.260828 41.371922
4053000000 -23.785788 -110.18152 -2.2961297 54.781693 -2.2946622 54.774506 -25.212839 36.819752
4054000000 -23.75292 -112.3124 -2.2963278 51.0816 -2.2945845 51.055 -25.133944 30.395124
4055000000 -23.806849 -113.9369 -2.2976577 47.377678 -2.298646 47.346088 -25.176922 25.710062
4056000000 -23.776768 -115.82989 -2.2989135 43.649364 -2.2991364 43.629169 -25.128719 19.770899
4057000000 -23.809811 -117.51816 -2.2968981 39.94149 -2.2985883 39.903183 -25.092878 14.806335
4058000000 -23.912163 -119.4651 -2.2957015 36.210369 -2.2998507 36.227539 -25.055979 8.9791832
4059000000 -23.853432 -121.55141 -2.2965484 32.521538 -2.2964253 32.496193 -25.088472 3.5233018
4060000000 -23.955717 -123.26856 -2.300005 28.855139 -2.2961969 28.771181 -25.025127 -1.3200172
4061000000 -24.002281 -125.34782 -2.2994695 25.086046 -2.2922449 25.056089 -24.999275 -6.3834667
4062000000 -24.131521 -127.07973 -2.2999237 21.387171 -2.2946687 21.35388 -25.053547 -11.984732
4063000000 -24.105145 -128.71495 -2.2981312 17.671988 -2.3009317 17.629829 -25.027185 -17.069273
4064000000 -24.149374 -131.29216 -2.3020835 13.94429 -2.2958448 13.898049 -25.089426 -22.33964
4065000000 -24.262405 -132.33968 -2.3005655 10.240171 -2.2967701 10.227005 -25.110088 -27.717714
4066000000 -24.278187 -134.67175 -2.2981677 6.5368576 -2.2904387 6.5038052 -25.220148 -33.000622
4067000000 -24.438538 -136.70628 -2.2985623 2.8294981 -2.2965119 2.7668793 -25.132366 -37.789806
4068000000 -24.430111 -138.28316 -2.2991302 -0.88174736 -2.2991912 -0.91841072 -25.254978 -42.688419
4069000000 -24.494658 -139.99245 -2.301893 -4.5881081 -2.2920341 -4.6627197 -25.326893 -47.911835
4070000000 -24.647058 -141.98627 -2.3017712 -8.2945929 -2.2943556 -8.3565092 -25.361773 -53.295452
4071000000 -24.716379 -144.12074 -2.2976213 -12.028257 -2.2938974 -12.049877 -25.335989 -58.528645
4072000000 -24.766613 -145.9613 -2.2997534 -15.740842 -2.2961094 -15.786014 -25.505486 -63.653339
4073000000 -24.890366 -147.84473 -2.2993808 -19.481947 -2.2982228 -19.50918 -25.520977 -68.479462
4074000000 -24.934175 -149.40306 -2.2965739 -23.179144 -2.2960441 -23.225227 -25.724495 -73.815201
4075000000 -25.084047 -151.66924 -2.2968426 -26.890778 -2.2983215 -26.916498 -25.749523 -79.164146
4076000000 -25.221375 -153.18478 -2.2987676 -30.58666 -2.2927008 -30.650778 -25.857296 -84.726166
4077000000 -25.253981 -154.82083 -2.297612 -34.314278 -2.2956839 -34.327419 -26.104649 -89.330582
4078000000 -25.355616 -157.28461 -2.2939882 -38.022751 -2.2956874 -38.049385 -26.114555 -94.768654
4079000000 -25.515423 -158.28409 -2.2968764 -41.773911 -2.2955949 -41.759663 -26.267864 -100.70457
4080000000 -25.475864 -159.99152 -2.296463 -45.464695 -2.2942894 -45.518162 -26.331882 -105.89394
4081000000 -25.659826 -161.93384 -2.2975447 -49.169052 -2.2976782 -49.213192 -26.520885 -110.97389
4082000000 -25.817991 -163.66574 -2.293716 -52.9077 -2.2958007 -52.938995 -26.628799 -116.48009
4083000000 -25.928574 -165.03638 -2.2952869 -56.621117 -2.2962339 -56.634209 -26.710613 -122.10468
4084000000 -26.095411 -166.86855 -2.2940681 -60.350704 -2.2942355 -60.362732 -26.865412 -127.56018
4085000000 -26.097113 -168.07411 -2.2979331 -64.074532 -2.2939465 -64.079987 -26.928572 -133.58774
4086000000 -26.162426 -169.7881 -2.3008676 -67.759926 -2.2961428 -67.780975 -27.115501 -139.01813
4087000000 -26.236607 -171.18768 -2.2962563 -71.483231 -2.2963293 -71.514908 -27.240847 -143.82281
4088000000 -26.368288 -172.98064 -2.2945151 -75.209686 -2.2905431 -75.200523 -27.338453 -149.74744
4089000000 -26.278158 -174.32027 -2.2993991 -78.879837 -2.2978988 -78.92804 -27.503351 -155.5537
4090000000 -26.469379 -176.3672 -2.2999632 -82.622971 -2.2957134 -82.644051 -27.554976 -160.73967
4091000000 -26.587742 -177.41861 -2.2987971 -86.353661 -2.2909427 -86.384369 -27.6719 -166.14532
4092000000 -26.573687 -179.17944 -2.2978127 -90.075043 -2.2994835 -90.097397 -27.810694 -172.19514
4093000000 -26.654079 179.33664 -2.2963815 -93.767082 -2.296334 -93.799736 -27.925541 -177.58548
4094000000 -26.711323 177.24782 -2.2957618 -97.491394 -2.2922454 -97.527473 -28.194901 176.53922
4095000000 -26.856789 175.43808 -2.2978351 -101.21176 -2.2959967 -101.21171 -28.176178 170.50261
4096000000 -26.824503 174.90366 -2.2999842 -104.93015 -2.2963121 -104.99168 -28.271978 164.96786
4097000000 -26.812489 172.4072 -2.2990026 -108.65405 -2.2949696 -108.67371 -28.328438 159.56813
4098000000 -26.850843 170.82176 -2.2969823 -112.36825 -2.2982714 -112.41557 -28.370132 153.58957
4099000000 -26.902142 168.86169 -2.2970562 -116.08774 -2.3015738 -116.13 -28.463102 148.3049
4100000000 -26.889601 166.71964 -2.3006129 -119.80431 -2.3025281 -119.81675 -28.494572 142.12828
4101000000 -27.026644 165.05179 -2.3031621 -123.49876 -2.2934773 -123.53967 -28.540897 135.98296
4102000000 -27.080318 163.23181 -2.3007357 -127.23769 -2.2921817 -127.24051 -28.739466 130.9906
4103000000 -27.044266 160.34697 -2.2979174 -130.93671 -2.3015082 -130.98175 -28.664473 125.15343
4104000000 -27.132444 158.95386 -2.296212 -134.66194 -2.2959008 -134.69197 -28.874058 118.74631
4105000000 -27.156019 156.63069 -2.2991567 -138.36781 -2.2975729 -138.40367 -28.805239 114.05595
4106000000 -27.232635 154.20427 -2.3040645 -142.10445 -2.2979848 -142.09641 -28.771118 108.47901
4107000000 -27.261272 151.75465 -2.3044503 -145.78389 -2.2969875 -145.80609 -28.849583 102.11981
4108000000 -27.287817 149.49281 -2.3030972 -149.56398 -2.2983053 -149.55318 -28.761068 98.63665
4109000000 -27.22817 146.71124 -2.3029666 -153.22881 -2.2970991 -153.28903 -28.884966 92.824944
4110000000 -27.415897 144.58563 -2.3020189 -156.9525 -2.2989557 -156.98526 -28.852434 88.121056
4111000000 -27.443821 141.90176 -2.3031242 -160.68683 -2.3002863 -160.6873 -28.77239 82.486237
4112000000 -27.370611 139.88892 -2.2988462 -164.39711 -2.3011806 -164.4319 -28.813353 77.325539
4113000000 -27.590525 136.23116 -2.3053851 -168.11269 -2.3037353 -168.13362 -28.659298 71.567741
4114000000 -27.591871 133.15611 -2.3018653 -171.80846 -2.3014057 -171.84424 -28.868404 66.502174
4115000000 -27.727736 131.02962 -2.3036432 -175.52052 -2.3029816 -175.55057 -28.822704 61.817352
4116000000 -27.749537 128.10425 -2.301228 -179.24171 -2.306191 -179.28694 -28.732672 56.376987
4117000000 -27.798164 125.26425 -2.3043931 177.03181 -2.2982364 177.01494 -28.797651 52.582981
4118000000 -28.007919 122.63525 -2.3046615 173.3055 -2.299572 173.3054 -28.772125 47.179802
4119000000 -27.837753 119.81535 -2.3034234 169.60268 -2.2983031 169.57484 -28.667498 41.755833
4120000000 -27.971342 116.64233 -2.3005738 165.8894 -2.2985904 165.87802 -28.662107 38.325321
4121000000 -28.115086 113.58286 -2.3061633 162.18407 -2.3025074 162.17094 -28.671825 33.464352
4122000000 -28.020567 110.22278 -2.3051021 158.44426 -2.3017883 158.4301 -28.627501 28.203384
4123000000 -28.103521 107.80978 -2.2996018 154.72974 -2.3060448 154.69708 -28.579657 23.692999
4124000000 -28.147797 104.12588 -2.3016846 151.02817 -2.3016031 150.96788 -28.600561 19.108034
4125000000 -28.19673 101.33585 -2.3071139 147.30685 -2.3052518 147.27921 -28.527319 13.670595
4126000000 -28.377131 98.631592 -2.3048046 143.57053 -2.2973206 143.57166 -28.45566 9.9869471
4127000000 -28.244232 95.138664 -2.3080745 139.87582 -2.3019629 139.85741 -28.599401 5.084487
4128000000 -28.357948 92.12841 -2.3050923 136.1568 -2.3034353 136.09004 -28.414713 0.85911173
4129000000 -28.456842 89.070137 -2.3101778 132.4417 -2.3046193 132.42041 -28.414948 -3.3982251
4130000000 -28.53768 85.391113 -2.3041058 128.7155 -2.3016191 128.71243 -28.485865 -7.8893905
4131000000 -28.496943 83.242516 -2.3064377 125.01417 -2.303731 124.98315 -28.432657 -12.800449
4132000000 -28.476507 80.070831 -2.3123033 121.28885 -2.3026323 121.24665 -28.413971 -17.511375
4133000000 -28.566458 77.243263 -2.3066359 117.56851 -2.3081682 117.57391 -28.474518 -22.144323
4134000000 -28.595455 74.74263 -2.3055027 113.87671 -2.3056149 113.84708 -28.443846 -27.136646
4135000000 -28.715748 70.891983 -2.3090508 110.11113 -2.3064301 110.10794 -28.322674 -31.293362
4136000000 -28.712261 68.277 -2.3084183 106.40384 -2.3060427 106.4122 -28.154011 -35.848473
4137000000 -28.676661 65.379829 -2.3090959 102.72408 -2.3041546 102.70223 -28.365572 -39.448124
4138000000 -28.653666 62.020168 -2.3085747 98.97831 -2.3084087 98.966301 -28.221182 -44.610065
4139000000 -28.677662 59.357021 -2.3055475 95.249794 -2.3081703 95.24897 -28.165134 -48.882046
4140000000 -28.671209 56.688343 -2.308691 91.585823 -2.3070087 91.554298 -28.124565 -53.126652
4141000000 -28.780146 53.919712 -2.3089373 87.846573 -2.3083079 87.83284 -28.278933 -57.775368
4142000000 -28.767185 51.262058 -2.3094549 84.133354 -2.3073354 84.115784 -28.216808 -62.869732
4143000000 -28.781788 48.747341 -2.3083413 80.396896 -2.3080528 80.389786 -28.143019 -66.165848
4144000000 -28.803511 45.073059 -2.3117697 76.693077 -2.3089187 76.644371 -28.067978 -71.582817
4145000000 -28.89448 42.480606 -2.3033011 72.992409 -2.3105226 72.942947 -28.133955 -76.84964
4146000000 -28.798908 39.351364 -2.3118038 69.259949 -2.3100743 69.257248 -28.058472 -81.138908
4147000000 -28.714666 37.15731 -2.3118994 65.553085 -2.3052781 65.542435 -28.130474 -85.264908
4148000000 -28.837156 34.610863 -2.3120127 61.811306 -2.3022633 61.830929 -28.070473 -89.677521
4149000000 -28.808264 31.312347 -2.3084702 58.102848 -2.3107679 58.106197 -27.979895 -94.439674
4150000000 -28.868725 29.13982 -2.3150258 54.381226 -2.3098056 54.366486 -27.982306 -99.895874
4151000000 -28.813828 26.975523 -2.3102837 50.668583 -2.309242 50.672615 -27.931498 -103.94223
4152000000 -28.800961 24.374212 -2.3099127 46.974503 -2.3110368 46.938339 -28.002672 -109.75889
4153000000 -28.66284 21.674927 -2.3107848 43.250957 -2.3076878 43.253513 -27.968273 -113.98
4154000000 -28.637861 19.580153 -2.310415 39.517902 -2.310991 39.487659 -27.93594 -119.21545
4155000000 -28.62517 17.19886 -2.3103335 35.831596 -2.3119462 35.78709 -27.987762 -124.38866
4156000000 -28.562164 14.053535 -2.3112051 32.094086 -2.314441 32.053219 -28.026896 -129.58107
4157000000 -28.462112 12.43952 -2.3141432 28.384968 -2.313767 28.367771 -28.028812 -134.31114
4158000000 -28.351036 10.711423 -2.3170061 24.655708 -2.3146024 24.654079 -28.011465 -139.59689
4159000000 -28.1726 8.3955193 -2.3135359 20.943926 -2.313468 20.922184 -27.832445 -144.15433
4160000000 -28.162987 5.5073061 -2.3130608 17.2383 -2.3134003 17.20985 -27.873562 -149.61862
4161000000 -28.111406 3.917485 -2.3170922 13.535024 -2.3139863 13.462969 -27.816324 -155.37248
4162000000 -27.943758 1.6239367 -2.3164306 9.7748337 -2.3133075 9.7805824 -27.885149 -160.80014
4163000000 -27.872604 -0.50212461 -2.3179467 6.081058 -2.3133464 6.0513401 -27.920341 -166.06703
4164000000 -27.695314 -2.8419492 -2.322376 2.3539555 -2.317941 2.3778131 -27.875715 -171.2569
4165000000 -27.564106 -5.1728749 -2.3132806 -1.3439455 -2.3170855 -1.3894737 -27.874317 -177.74323
4166000000 -27.376768 -6.9401541 -2.3217587 -5.116703 -2.3195844 -5.0893841 -27.74087 176.88254
4167000000 -27.292948 -8.5103197 -2.3231423 -8.7868652 -2.3156555 -8.8404016 -27.675135 171.50104
4168000000 -27.134989 -10.24993 -2.3198204 -12.509336 -2.3174407 -12.541017 -27.626926 165.83858
4169000000 -27.045273 -12.236608 -2.320787 -16.209772 -2.3176391 -16.274845 -27.640566 160.34111
4170000000 -26.967247 -14.760529 -2.3230412 -19.959656 -2.3197763 -19.958567 -27.557226 153.93114
4171000000 -26.663021 -16.627865 -2.323194 -23.644962 -2.3179305 -23.72967 -27.358755 148.98067
4172000000 -26.576767 -18.603632 -2.3195419 -27.390467 -2.3171885 -27.38014 -27.385996 143.12558
4173000000 -26.413084 -20.850121 -2.3251653 -31.094 -2.3198264 -31.115498 -27.270538 138.20335
4174000000 -26.314951 -23.202671 -2.3261204 -34.786224 -2.3189533 -34.82478 -27.19648 131.71782
4175000000 -26.263067 -25.092846 -2.3240175 -38.503677 -2.3249223 -38.543343 -27.140846 125.88227
4176000000 -26.115982 -27.427345 -2.32781 -42.210964 -2.321147 -42.225101 -27.0158 120.70306
4177000000 -26.00532 -28.878014 -2.3259258 -45.932644 -2.3247674 -45.977146 -26.973248 115.55329
4178000000 -25.910477 -31.09531 -2.3318577 -49.676445 -2.3249352 -49.666672 -26.790869 109.90244
4179000000 -25.758879 -33.715069 -2.331521 -53.38039 -2.3242121 -53.397381 -26.746254 105.14147
4180000000 -25.660122 -35.441685 -2.327888 -57.086178 -2.3252213 -57.117863 -26.708027 99.002113
4181000000 -25.653805 -37.197292 -2.326467 -60.818199 -2.324003 -60.815289 -26.507566 93.535851
4182000000 -25.469337 -39.934231 -2.329489 -64.52803 -2.3291726 -64.538429 -26.413696 88.298935
4183000000 -25.401098 -42.026413 -2.3307798 -68.234604 -2.3274412 -68.248558 -26.365908 83.110245
4184000000 -25.459051 -43.713074 -2.3324213 -71.946266 -2.3275354 -71.956985 -26.422791 76.600365
4185000000 -25.206585 -46.18119 -2.3312833 -75.659599 -2.326509 -75.674164 -26.255577 72.498039
4186000000 -25.187092 -47.860012 -2.3279145 -79.374763 -2.3361521 -79.403419 -26.218382 66.863533
4187000000 -25.160696 -49.84837 -2.3333893 -83.088074 -2.3268969 -83.106636 -26.058348 61.445866
4188000000 -25.010721 -52.14444 -2.3321996 -86.848343 -2.3290961 -86.818703 -26.063025 55.826202
4189000000 -25.045143 -54.688999 -2.3334312 -90.498848 -2.3316467 -90.542091 -25.997311 50.116531
4190000000 -25.039032 -56.257378 -2.3334033 -94.216705 -2.3276265 -94.26918 -25.952032 45.42701
4191000000 -24.87097 -58.959641 -2.3318708 -97.930054 -2.3354311 -97.985054 -25.919245 39.619888
4192000000 -24.916515 -60.824352 -2.3358982 -101.6604 -2.3310804 -101.68163 -25.835243 34.635189
4193000000 -24.845791 -62.865498 -2.3340569 -105.35149 -2.3289328 -105.40012 -25.821159 29.700449
4194000000 -24.820127 -65.218613 -2.3338127 -109.09443 -2.3345101 -109.07767 -25.846371 23.700977
4195000000 -24.813143 -67.183304 -2.3330083 -112.79195 -2.3316278 -112.82056 -25.730276 18.528767
4196000000 -24.754429 -69.886848 -2.3355246 -116.50163 -2.3331597 -116.56602 -25.738663 12.907358
4197000000 -24.75721 -71.640373 -2.3363609 -120.21036 -2.3363376 -120.23279 -25.653786 7.9449496
4198000000 -24.709915 -73.297791 -2.3354948 -123.92918 -2.3315587 -123.93478 -25.688627 2.284018
4199000000 -24.731155 -75.567749 -2.3387892 -127.63898 -2.3286202 -127.67396 -25.635599 -3.4532375
4200000000 -24.808878 -77.560219 -2.3332558 -131.33517 -2.3335142 -131.37842 -25.605585 -8.0763483
4201000000 -24.756704 -79.8918 -2.3360591 -135.06593 -2.3308499 -135.06009 -25.551182 -13.924839
4202000000 -24.807476 -81.146629 -2.3396919 -138.77693 -2.3331463 -138.79796 -25.62014 -18.96067
4203000000 -24.749241 -83.809227 -2.3343418 -142.48579 -2.3390372 -142.52817 -25.65844 -24.196522
4204000000 -24.803762 -85.344131 -2.3350937 -146.22401 -2.3334906 -146.21779 -25.626589 -29.902708
4205000000 -24.782206 -87.172066 -2.3373559 -149.92305 -2.3296235 -149.94872 -25.607088 -35.726341
4206000000 -24.887177 -88.860077 -2.3392382 -153.63631 -2.3381927 -153.67578 -25.642704 -40.511101
4207000000 -24.798401 -90.395851 -2.3405221 -157.33731 -2.333806 -157.36891 -25.613468 -46.752003
4208000000 -24.931967 -92.541382 -2.336952 -161.05243 -2.331986 -161.09435 -25.748678 -52.118671
4209000000 -24.866537 -94.192787 -2.3377776 -164.77557 -2.3332727 -164.77156 -25.705851 -57.233124
4210000000 -24.873987 -95.929642 -2.3334079 -168.48514 -2.3336599 -168.51944 -25.787815 -63.314106
4211000000 -24.95867 -97.323006 -2.3380725 -172.21085 -2.3363326 -172.22145 -25.826519 -68.764511
4212000000 -25.009363 -98.897995 -2.3354535 -175.93724 -2.3305995 -175.91373 -25.826508 -74.667854
4213000000 -25.065298 -100.57948 -2.3352232 -179.64136 -2.3354726 -179.65907 -25.890364 -79.769592
4214000000 -25.048594 -101.17831 -2.3381195 176.63885 -2.333297 176.60609 -25.963724 -85.380241
4215000000 -25.086533 -103.0124 -2.3370247 172.94748 -2.3389037 172.87599 -26.016205 -91.164299
4216000000 -25.146912 -104.18946 -2.3363986 169.2052 -2.335681 169.19109 -26.072735 -96.870598
4217000000 -25.113796 -105.77048 -2.3376667 165.50743 -2.3342686 165.47263 -26.107428 -103.21773
4218000000 -25.109325 -106.45533 -2.3383589 161.77255 -2.3385804 161.802 -26.163427 -109.17281
4219000000 -25.100864 -107.86093 -2.3387399 158.07018 -2.3383377 158.06885 -26.22109 -114.84347
4220000000 -25.162365 -109.06001 -2.3441896 154.35974 -2.3329976 154.31371 -26.2418 -120.84185
4221000000 -25.112453 -110.28393 -2.3394985 150.6501 -2.3361173 150.61603 -26.314838 -127.29036
4222000000 -25.151907 -111.63888 -2.340589 146.90634 -2.3385959 146.88522 -26.394537 -133.55269
4223000000 -25.21512 -112.562 -2.3429992 143.19162 -2.3358388 143.16896 -26.301456 -139.14122
4224000000 -25.170647 -113.85252 -2.3388486 139.47636 -2.3387151 139.49088 -26.362103 -145.67529
4225000000 -25.124905 -114.67349 -2.3364084 135.75826 -2.3384604 135.77376 -26.434206 -151.99084
4226000000 -25.164225 -116.1383 -2.3401582 132.10408 -2.3395402 132.02783 -26.383842 -157.90579
4227000000 -25.084003 -117.44173 -2.3395948 128.32829 -2.3390603 128.34325 -26.407457 -164.31277
4228000000 -25.048162 -118.96185 -2.3417246 124.63518 -2.3375998 124.61982 -26.475832 -170.53685
4229000000 -24.99991 -120.31492 -2.3408978 120.89936 -2.3388016 120.887 -26.484564 -176.09875
4230000000 -24.957331 -121.53721 -2.3375003 117.1804 -2.3357649 117.1869 -26.401045 177.37744
4231000000 -24.940422 -123.29796 -2.3415577 113.47211 -2.3442159 113.43526 -26.452425 171.84589
4232000000 -24.929577 -124.57779 -2.3421254 109.75886 -2.3396111 109.7244 -26.352259 166.11787
4233000000 -24.915522 -125.98859 -2.3463273 106.07391 -2.3368425 106.032 -26.293388 159.21736
4234000000 -24.839464 -128.04475 -2.3451588 102.36384 -2.3461678 102.30392 -26.293797 153.6808
4235000000 -24.75284 -129.50261 -2.3427958 98.611916 -2.3409991 98.616463 -26.18891 147.51512
4236000000 -24.781324 -131.33572 -2.3455648 94.909782 -2.3430009 94.897903 -26.171471 141.95403
4237000000 -24.748466 -133.16524 -2.3462064 91.200432 -2.3445449 91.186569 -26.152151 135.97935
4238000000 -24.667074 -134.56097 -2.3525105 87.482597 -2.3437712 87.467499 -26.039545 130.16553
4239000000 -24.753767 -136.71297 -2.3454666 83.753967 -2.3458617 83.732994 -26.012188 124.69599
4240000000 -24.67803 -138.38585 -2.349793 80.054283 -2.3495755 80.035202 -25.93572 119.05173
4241000000 -24.585884 -140.25293 -2.3490708 76.337578 -2.3451588 76.333168 -25.881374 113.46323
4242000000 -24.509075 -142.29459 -2.3479342 72.616333 -2.3487329 72.605133 -25.868586 108.04579
4243000000 -24.573523 -144.39372 -2.3525903 68.927078 -2.3479693 68.895645 -25.86244 103.01932
4244000000 -24.566891 -146.5957 -2.3475492 65.211761 -2.3477995 65.183533 -25.731108 97.129723
4245000000 -24.561283 -148.4706 -2.348666 61.504353 -2.3470249 61.46357 -25.78754 91.881317
4246000000 -24.583246 -150.71164 -2.3477163 57.78455 -2.3482969 57.749409 -25.81539 86.449509
4247000000 -24.548189 -152.79829 -2.3471787 54.032425 -2.3478947 54.061077 -25.775427 80.882179
4248000000 -24.559095 -154.72906 -2.3510499 50.328117 -2.3486218 50.346699 -25.841923 75.572548
4249000000 -24.519035 -156.92313 -2.3486311 46.632347 -2.3492999 46.588833 -25.721708 70.243378
4250000000 -24.519705 -159.45079 -2.3537586 42.945984 -2.3525317 42.909752 -25.732969 65.455627
4251000000 -24.559036 -161.74271 -2.3500454 39.215652 -2.3546128 39.198158 -25.714588 60.39909
4252000000 -24.58914 -163.82965 -2.3507264 35.512348 -2.34672 35.478893 -25.755451 54.454098
4253000000 -24.600634 -166.18567 -2.3508599 31.803099 -2.3520308 31.771086 -25.647186 49.935635
4254000000 -24.612581 -168.00804 -2.3519621 28.070225 -2.344027 28.034815 -25.822721 43.934753
4255000000 -24.664845 -171.49365 -2.3531659 24.338951 -2.3524485 24.349104 -25.735466 39.630253
4256000000 -24.734339 -173.20673 -2.354393 20.647795 -2.3506219 20.645603 -25.732367 33.862236
4257000000 -24.761019 -176.16663 -2.3492439 16.929382 -2.3554199 16.931507 -25.744812 29.437193
4258000000 -24.816135 -177.85532 -2.3535264 13.199817 -2.3472359 13.196837 -25.787664 24.551323
4259000000 -24.935795 179.39925 -2.347383 9.5196743 -2.3558435 9.4745064 -25.821507 20.181644
4260000000 -24.911652 176.96596 -2.3542593 5.7818351 -2.3522491 5.7612872 -25.921154 15.116508
4261000000 -25.072573 175.34818 -2.3536928 2.0741901 -2.3503964 2.0952048 -25.801971 10.09581
4262000000 -25.165367 172.5524 -2.3525841 -1.6157935 -2.3530078 -1.6382326 -25.855209 5.7171078
4263000000 -25.180279 169.64407 -2.349649 -5.3410869 -2.3514545 -5.3837228 -26.017006 0.87236804
4264000000 -25.428307 167.42511 -2.3534129 -9.0739603 -2.3474638 -9.0445423 -26.015455 -3.9233072
4265000000 -25.480404 165.14156 -2.350481 -12.748343 -2.3502212 -12.809726 -26.034826 -8.4286051
4266000000 -25.613632 162.09486 -2.3540137 -16.498959 -2.3533533 -16.483183 -26.103493 -12.967775
4267000000 -25.79085 159.67494 -2.3509235 -20.193289 -2.3481867 -20.192846 -26.242384 -17.305283
4268000000 -25.935171 157.59277 -2.3470306 -23.887524 -2.3478808 -23.92902 -26.316402 -21.99777
4269000000 -26.024645 154.74612 -2.3488696 -27.643044 -2.3481271 -27.65559 -26.346861 -26.038975
4270000000 -26.330338 152.49849 -2.3539793 -31.327852 -2.3484495 -31.341461 -26.46974 -30.65136
4271000000 -26.529282 149.9453 -2.3542736 -35.054756 -2.3454316 -35.036491 -26.630396 -35.381714
4272000000 -26.739401 147.63243 -2.3466942 -38.771366 -2.3548684 -38.812439 -26.729618 -39.117603
4273000000 -26.891048 145.04793 -2.3548398 -42.456032 -2.3485005 -42.496956 -26.912451 -44.243713
4274000000 -27.093943 142.64842 -2.3497055 -46.170246 -2.3503137 -46.242077 -27.210108 -47.835697
4275000000 -27.395773 139.71933 -2.3489616 -49.93288 -2.3467121 -49.952404 -27.383286 -51.860867
4276000000 -27.647881 137.64609 -2.3496182 -53.636597 -2.3519888 -53.660477 -27.552408 -56.046158
4277000000 -27.828337 135.65642 -2.3481658 -57.322411 -2.3448846 -57.356365 -27.766485 -60.794647
4278000000 -28.161232 132.5887 -2.3509817 -61.051285 -2.3469181 -61.091152 -27.998213 -65.269852
4279000000 -28.286753 129.67369 -2.3514683 -64.781281 -2.3497951 -64.790527 -28.222296 -69.075394
4280000000 -28.664841 127.42012 -2.3472288 -68.489319 -2.3440685 -68.501945 -28.589834 -73.736
4281000000 -28.838469 125.26564 -2.3501816 -72.223312 -2.3471031 -72.251953 -28.663055 -78.191765
4282000000 -29.227057 122.96044 -2.3486161 -75.914467 -2.3474555 -75.975914 -29.031624 -82.092796
4283000000 -29.533854 120.71967 -2.3490736 -79.646423 -2.3489237 -79.670235 -29.339527 -87.522507
4284000000 -29.819334 119.02972 -2.35042 -83.375572 -2.3453648 -83.384422 -29.794275 -91.754387
4285000000 -30.027916 117.06123 -2.3496063 -87.081886 -2.3426409 -87.118896 -29.909031 -96.928871
4286000000 -30.24416 115.56258 -2.3500752 -90.831909 -2.342186 -90.829903 -30.215792 -100.60348
4287000000 -30.486332 112.02528 -2.3506019 -94.509811 -2.3434334 -94.555771 -30.62092 -106.10915
4288000000 -30.757353 109.40069 -2.3478274 -98.218941 -2.3437669 -98.255821 -30.934748 -112.02709
4289000000 -31.04071 108.7904 -2.3473835 -101.98483 -2.3457634 -101.96601 -31.303871 -115.92498
4290000000 -31.332542 107.35274 -2.3471279 -105.67786 -2.3477995 -105.69788 -31.675879 -121.36047
4291000000 -31.454428 105.0284 -2.3474844 -109.37934 -2.3444908 -109.4053 -31.9841 -127.12199
4292000000 -31.607689 103.66117 -2.34587 -113.11967 -2.347872 -113.12008 -32.24934 -132.25021
4293000000 -31.84313 101.47322 -2.3452756 -116.84488 -2.3488636 -116.85406 -32.66011 -140.00833
4294000000 -32.137707 98.974586 -2.3449457 -120.57491 -2.3420155 -120.56706 -33.068394 -145.81792
4295000000 -32.25491 97.556137 -2.3484685 -124.25957 -2.3433814 -124.26857 -33.394039 -151.16583
4296000000 -32.262375 97.091682 -2.3454466 -127.98355 -2.3453879 -128.01038 -33.711315 -157.52469
4297000000 -32.331978 95.588249 -2.3471689 -131.69606 -2.3472483 -131.73158 -33.851631 -165.12001
4298000000 -32.53434 92.735489 -2.3450317 -135.41808 -2.3474195 -135.41104 -34.212509 -171.72073
4299000000 -32.523762 91.529449 -2.3456564 -139.14958 -2.3464165 -139.14661 -34.259876 -178.58119
4300000000 -32.545826 91.585724 -2.3478305 -142.82776 -2.3475173 -142.88098 -34.418575 173.9487
4301000000 -32.667179 88.84816 -2.3435235 -146.5761 -2.3510342 -146.60284 -34.367737 167.66347
4302000000 -32.425266 87.116829 -2.3514066 -150.26164 -2.3483303 -150.31575 -34.460327 160.21375
4303000000 -32.573223 86.471596 -2.3481929 -154.00673 -2.3503115 -154.05067 -34.381931 153.79472
4304000000 -32.474041 83.280167 -2.3542585 -157.70192 -2.3443122 -157.75186 -34.557934 147.91315
4305000000 -32.505138 82.074814 -2.3508861 -161.44211 -2.3463991 -161.45961 -34.393055 140.78484
4306000000 -32.157887 81.216309 -2.3489783 -165.17259 -2.3509839 -165.18803 -34.141521 133.75745
4307000000 -32.184227 78.661148 -2.3494728 -168.8942 -2.3472662 -168.92992 -34.206478 126.72948
4308000000 -32.090416 76.596977 -2.3496587 -172.61423 -2.3514395 -172.62892 -33.962978 121.21448
4309000000 -31.878252 74.175652 -2.3521273 -176.33536 -2.3520293 -176.31184 -33.741051 114.26478
4310000000 -31.676165 71.351959 -2.3502777 179.95836 -2.3475158 179.91281 -33.55294 108.08678
4311000000 -31.543291 69.188644 -2.354239 176.25868 -2.3502622 176.24455 -33.319183 103.11356
4312000000 -31.377634 66.84404 -2.351984 172.55132 -2.347095 172.50156 -33.16877 96.486549
4313000000 -31.29266 63.583565 -2.3534427 168.81673 -2.3526225 168.76598 -32.712208 89.5756
4314000000 -31.07839 61.64743 -2.3558202 165.10666 -2.3533394 165.06836 -32.467068 85.981033
4315000000 -30.94911 58.842529 -2.3532157 161.36324 -2.3505819 161.39055 -32.216209 80.216141
4316000000 -30.603962 55.068642 -2.3570449 157.66025 -2.3533523 157.62036 -32.005341 74.652016
4317000000 -30.623842 53.191776 -2.3571367 153.92868 -2.3533297 153.90459 -31.559372 68.686874
4318000000 -30.454489 50.195992 -2.3534129 150.2496 -2.3540809 150.17909 -31.257713 64.356895
4319000000 -30.261282 46.257442 -2.3561003 146.51089 -2.3517959 146.46815 -31.038761 59.492908
4320000000 -30.168674 44.732391 -2.3587124 142.7702 -2.3555367 142.78233 -30.783068 53.829304
4321000000 -29.784622 40.300018 -2.3603058 139.07678 -2.3598912 139.05531 -30.541872 50.117569
4322000000 -29.698471 37.594437 -2.3574941 135.36435 -2.3610475 135.32565 -30.204926 44.816708
4323000000 -29.517488 34.421272 -2.359581 131.63274 -2.3609905 131.60745 -29.904251 40.480976
4324000000 -29.309042 30.738119 -2.3566375 127.91197 -2.3575687 127.8967 -29.612028 35.839645
4325000000 -29.137182 27.732407 -2.3626833 124.19449 -2.3576856 124.19288 -29.416891 32.062077
4326000000 -29.004192 24.830454 -2.358696 120.49438 -2.3611417 120.47578 -29.259535 26.734413
4327000000 -28.696442 21.415678 -2.3587313 116.75951 -2.3615723 116.75132 -28.939478 22.141354
4328000000 -28.59149 18.214396 -2.3574405 113.07301 -2.3587794 113.03834 -28.665581 17.896481
4329000000 -28.456017 15.667787 -2.3604846 109.34607 -2.3630106 109.30434 -28.631428 13.154582
4330000000 -28.245871 12.173676 -2.3642926 105.60346 -2.3654988 105.61451 -28.294249 9.890728
4331000000 -28.103357 8.9421511 -2.3587904 101.92162 -2.3627417 101.85794 -28.124424 6.0747476
4332000000 -28.045469 6.7395687 -2.3678875 98.212105 -2.3628852 98.168854 -27.889626 1.2394542
4333000000 -27.823792 2.9596055 -2.368114 94.516083 -2.3651915 94.455231 -27.866192 -2.4076302
4334000000 -27.723255 -0.43256265 -2.3649304 90.767265 -2.3636253 90.717232 -27.397238 -7.5728478
4335000000 -27.607939 -2.6847572 -2.3650892 87.046158 -2.3639424 87.038078 -27.384647 -11.632565
4336000000 -27.355934 -5.5170126 -2.3673303 83.34623 -2.366446 83.307808 -27.339899 -16.066605
4337000000 -27.320524 -8.6246758 -2.3685482 79.621964 -2.3653297 79.605896 -27.131119 -19.913851
4338000000 -27.160862 -11.069136 -2.3694289 75.923264 -2.3665473 75.890213 -26.972195 -24.620464
4339000000 -27.029438 -13.875134 -2.3688822 72.202103 -2.3660161 72.154541 -26.919462 -29.122335
4340000000 -26.901205 -16.931297 -2.3725178 68.481026 -2.3702338 68.447632 -26.740538 -33.083698
4341000000 -26.78857 -18.99922 -2.3727324 64.761856 -2.3670259 64.756813 -26.670994 -37.442249
4342000000 -26.636299 -21.743437 -2.3742495 61.03791 -2.3656092 61.03709 -26.602507 -42.427094
4343000000 -26.598272 -24.102484 -2.3747125 57.329739 -2.3722203 57.305199 -26.467684 -47.516331
4344000000 -26.520203 -27.48056 -2.3717527 53.61224 -2.3711579 53.582207 -26.427549 -52.404823
4345000000 -26.326523 -29.581495 -2.3692489 49.889996 -2.370337 49.892227 -26.297594 -56.068943
4346000000 -26.371086 -31.952408 -2.3737679 46.170834 -2.3714926 46.185947 -26.306801 -61.506351
4347000000 -26.236027 -33.866234 -2.3723588 42.476482 -2.3713987 42.441761 -26.263802 -65.715309
4348000000 -26.130188 -36.094212 -2.3724697 38.741699 -2.3760633 38.724419 -26.18306 -70.649529
4349000000 -26.065798 -38.87595 -2.3783088 35.045708 -2.3719587 35.022385 -26.069067 -74.921852
4350000000 -25.969154 -41.63448 -2.3739522 31.318024 -2.3728569 31.299721 -26.065899 -80.221031
4351000000 -25.897253 -43.558784 -2.3769307 27.620157 -2.3730042 27.571262 -26.064423 -84.658943
4352000000 -25.955006 -45.840096 -2.3752496 23.882465 -2.370615 23.900276 -26.039495 -89.927086
4353000000 -25.875685 -47.982712 -2.3741488 20.169243 -2.378422 20.152496 -26.040728 -94.450829
4354000000 -25.777622 -50.220291 -2.3737147 16.462299 -2.379503 16.419506 -25.947645 -99.905273
4355000000 -25.709888 -52.182903 -2.3791938 12.728535 -2.3750138 12.742232 -25.873569 -104.09579
4356000000 -25.598213 -53.888718 -2.3808608 9.0329752 -2.3791289 9.023715 -25.908169 -109.79536
4357000000 -25.689724 -56.681732 -2.3808134 5.316453 -2.3747151 5.284833 -25.929293 -114.62835
4358000000 -25.600595 -58.38348 -2.3792958 1.6106856 -2.3770823 1.5860461 -25.827322 -120.08628
4359000000 -25.565603 -60.222851 -2.3787 -2.0834301 -2.3778613 -2.1777971 -25.847183 -125.20535
4360000000 -25.524107 -62.525887 -2.3794112 -5.82443 -2.37466 -5.8654227 -25.821997 -130.39204
4361000000 -25.405418 -64.094482 -2.3842897 -9.5278473 -2.3766785 -9.555212 -25.798351 -135.51736
4362000000 -25.298105 -65.981354 -2.3855233 -13.283781 -2.3806307 -13.275553 -25.841311 -140.68852
4363000000 -25.363379 -67.5252 -2.3811259 -16.950182 -2.376359 -17.012842 -25.79915 -145.72668
4364000000 -25.309332 -69.385864 -2.3861852 -20.670095 -2.3796079 -20.732105 -25.865778 -151.45061
4365000000 -25.161926 -71.521858 -2.377248 -24.404131 -2.3811564 -24.398651 -25.841864 -156.56863
4366000000 -25.12923 -73.042648 -2.3835888 -28.118078 -2.3788352 -28.111597 -25.86495 -162.17738
4367000000 -25.11231 -75.187126 -2.3829658 -31.82835 -2.3798273 -31.828167 -25.91573 -168.34341
4368000000 -24.963999 -76.015068 -2.3868992 -35.544022 -2.3813338 -35.589207 -25.917755 -173.58499
4369000000 -24.990551 -78.022148 -2.38256 -39.274193 -2.3814638 -39.276936 -25.830568 -179.36496
4370000000 -24.925266 -79.966461 -2.3862631 -42.968025 -2.3818758 -42.999374 -25.861151 175.2495
4371000000 -24.871893 -81.447975 -2.387563 -46.683933 -2.3888493 -46.724125 -25.957632 169.20967
4372000000 -24.75728 -83.169037 -2.385293 -50.419781 -2.3801918 -50.406254 -25.958494 163.10591
4373000000 -24.678764 -84.66787 -2.3880022 -54.123817 -2.3824613 -54.139668 -25.928602 157.09125
4374000000 -24.639706 -86.441673 -2.3844595 -57.84024 -2.3824582 -57.852707 -25.98859 151.01878
4375000000 -24.538847 -88.1035 -2.3889883 -61.537178 -2.388598 -61.559383 -25.94768 145.05852
4376000000 -24.489672 -89.943848 -2.3875909 -65.258957 -2.3830299 -65.281136 -25.967556 139.21936
4377000000 -24.408447 -91.170944 -2.3888915 -68.993263 -2.3857589 -68.99247 -25.922623 133.09998
4378000000 -24.324871 -93.488602 -2.3875117 -72.68116 -2.385705 -72.684708 -25.823784 126.96597
4379000000 -24.330563 -94.535538 -2.3868699 -76.402878 -2.3899159 -76.41172 -25.886864 121.48224
4380000000 -24.209497 -96.114815 -2.3888824 -80.113693 -2.3924577 -80.168068 -25.797705 114.98503
4381000000 -24.157331 -98.254013 -2.3921592 -83.822952 -2.3891063 -83.843849 -25.69112 109.0258
4382000000 -24.091309 -99.644913 -2.3947494 -87.544678 -2.3877375 -87.551346 -25.609875 103.34879
4383000000 -23.99865 -101.24639 -2.3920171 -91.254234 -2.3906219 -91.283249 -25.642523 97.436226
4384000000 -23.941483 -103.00813 -2.3905411 -94.979912 -2.3877823 -95.000244 -25.490589 91.5019
4385000000 -23.862396 -105.29842 -2.3941193 -98.652184 -2.3961861 -98.70565 -25.390707 85.432236
4386000000 -23.824829 -107.28713 -2.3960593 -102.42857 -2.3915768 -102.44233 -25.34499 79.427032
4387000000 -23.769188 -108.52986 -2.3962972 -106.12309 -2.398742 -106.11082 -25.266676 74.146317
4388000000 -23.680025 -110.80545 -2.3926184 -109.86008 -2.3975949 -109.8453 -25.165037 68.527428
4389000000 -23.634237 -112.57185 -2.3932967 -113.55833 -2.3932128 -113.55927 -25.139742 62.421673
4390000000 -23.704536 -114.22411 -2.3969522 -117.28302 -2.3904352 -117.26228 -24.992832 56.808815
4391000000 -23.63862 -116.56849 -2.3936155 -120.97817 -2.3938439 -120.99658 -25.003733 51.30352
4392000000 -23.595257 -118.4437 -2.3965254 -124.67101 -2.3942246 -124.71072 -24.938341 46.495308
4393000000 -23.633265 -120.31597 -2.4010775 -128.38431 -2.3935909 -128.42436 -24.803328 40.684769
4394000000 -23.575075 -121.6325 -2.3977244 -132.06993 -2.401475 -132.11092 -24.730209 35.486477
4395000000 -23.569281 -124.0542 -2.3977685 -135.79265 -2.397562 -135.8083 -24.807354 30.310072
4396000000 -23.610519 -125.82368 -2.3979309 -139.51678 -2.396435 -139.52696 -24.689146 24.719166
4397000000 -23.570065 -128.02573 -2.3966537 -143.25137 -2.3972344 -143.21808 -24.668783 19.724104
4398000000 -23.548409 -129.99313 -2.3955457 -146.95404 -2.3966081 -146.98897 -24.773932 13.924026
4399000000 -23.643185 -131.55319 -2.3957412 -150.63011 -2.3971736 -150.66621 -24.653893 8.8771133
4400000000 -23.63829 -133.75465 -2.4022923 -154.36568 -2.4005947 -154.40021 -24.655779 3.6227729
4401000000 -23.634382 -136.07193 -2.3987222 -158.09384 -2.3970573 -158.10522 -24.695215 -1.8331168
4402000000 -23.762856 -138.01437 -2.4023314 -161.80902 -2.3983512 -161.81006 -24.72422 -6.7895999
4403000000 -23.793661 -139.8838 -2.4014843 -165.51556 -2.3989139 -165.51474 -24.688866 -12.028644
4404000000 -23.816015 -141.0966 -2.3972321 -169.22134 -2.3956635 -169.20146 -24.786951 -17.571278
4405000000 -23.830931 -143.36037 -2.3980823 -172.90974 -2.3942122 -172.94075 -24.839792 -22.651981
4406000000 -23.94557 -145.14223 -2.4003866 -176.63887 -2.3966117 -176.64526 -24.827827 -28.294529
4407000000 -24.017473 -146.88589 -2.4000702 179.63461 -2.3986139 179.6239 -24.933907 -33.623127
4408000000 -24.040689 -148.97038 -2.402194 175.95375 -2.4000986 175.88686 -25.04871 -39.00317
4409000000 -24.096582 -150.50688 -2.3997257 172.21974 -2.3940492 172.21112 -25.051279 -44.826286
4410000000 -24.223886 -152.2466 -2.3996451 168.54097 -2.4009485 168.49054 -25.096338 -49.946201
4411000000 -24.236641 -154.11874 -2.3991535 164.78951 -2.3957663 164.77521 -25.250425 -55.623383
4412000000 -24.324789 -156.08539 -2.402988 161.07259 -2.3978684 161.06099 -25.315001 -61.351601
4413000000 -24.40563 -157.44354 -2.4018605 157.39377 -2.3957386 157.36142 -25.388601 -66.412331
4414000000 -24.501438 -159.21342 -2.4013124 153.64328 -2.3960428 153.62933 -25.489296 -72.641151
4415000000 -24.49029 -160.94519 -2.3980105 149.94029 -2.3991604 149.90076 -25.598301 -77.825066
4416000000 -24.679119 -162.60391 -2.4001656 146.18855 -2.3956571 146.21205 -25.597033 -83.781654
4417000000 -24.680929 -163.90166 -2.3993101 142.5045 -2.3956378 142.47122 -25.739372 -89.507645
4418000000 -24.807396 -165.02292 -2.4011505 138.77161 -2.3966365 138.81509 -25.780039 -95.347618
4419000000 -24.847942 -166.29817 -2.4012063 135.05348 -2.3969772 135.06674 -25.954655 -100.92508
4420000000 -24.8389 -167.68665 -2.3982356 131.37935 -2.3971589 131.34087 -26.052879 -107.09754
4421000000 -24.947601 -168.97464 -2.4031208 127.63416 -2.3983188 127.62278 -26.151886 -112.99997
4422000000 -25.045166 -170.73317 -2.4005175 123.94818 -2.398689 123.92276 -26.193439 -118.67058
4423000000 -25.144737 -172.39024 -2.3973742 120.17483 -2.3933506 120.17 -26.301077 -124.64522
4424000000 -25.176886 -173.13405 -2.3989165 116.51888 -2.3948865 116.48568 -26.353426 -130.96191
4425000000 -25.18022 -174.90608 -2.3953171 112.77699 -2.3981633 112.78129 -26.452318 -136.61143
4426000000 -25.334784 -175.50528 -2.3966324 109.04279 -2.3984222 109.05386 -26.511044 -143.58542
4427000000 -25.29694 -176.61945 -2.400332 105.34972 -2.3964293 105.32706 -26.667795 -148.66405
4428000000 -25.338051 -178.30519 -2.3951893 101.67236 -2.3993824 101.61712 -26.661667 -154.38663
4429000000 -25.334723 179.91139 -2.3964739 97.93 -2.395025 97.882675 -26.786522 -160.75246
4430000000 -25.410795 178.64238 -2.3998976 94.209518 -2.3904088 94.208038 -26.832693 -166.56123
4431000000 -25.403463 177.55054 -2.4021144 90.457024 -2.3950815 90.46418 -26.871197 -172.03648
4432000000 -25.512386 176.2944 -2.4005778 86.745308 -2.394608 86.751656 -26.869535 -178.63547
4433000000 -25.535877 174.27322 -2.3967605 83.05587 -2.3978055 83.037277 -26.991014 175.58614
4434000000 -25.602203 172.84697 -2.3984051 79.369011 -2.3972614 79.332878 -27.012745 168.78404
4435000000 -25.558386 171.61456 -2.4032347 75.605049 -2.3953574 75.590508 -27.116934 163.68454
4436000000 -25.545732 170.34195 -2.3981407 71.905899 -2.3980823 71.875862 -27.016048 157.40521
4437000000 -25.577225 168.535 -2.4053142 68.200394 -2.3911295 68.177368 -27.085644 150.86555
4438000000 -25.604286 166.9136 -2.3972421 64.467148 -2.3984039 64.431 -27.153143 145.23799
4439000000 -25.574903 165.04854 -2.4011235 60.751595 -2.3996983 60.764465 -27.092915 139.56746
4440000000 -25.657305 163.28485 -2.3997185 57.041611 -2.3983817 56.989662 -27.124756 133.68245
4441000000 -25.637182 161.17415 -2.4024704 53.297478 -2.396976 53.294827 -27.069361 128.02266
4442000000 -25.625717 159.46498 -2.4008214 49.633259 -2.4002638 49.587738 -27.046946 121.87022
4443000000 -25.708073 157.7243 -2.4015596 45.893257 -2.3981178 45.888126 -27.152149 116.12584
4444000000 -25.747059 154.80809 -2.4042797 42.19244 -2.3978405 42.16206 -26.99964 110.5793
4445000000 -25.808132 153.45068 -2.4013853 38.47916 -2.3986192 38.447994 -27.054159 105.0774
4446000000 -25.759947 151.13805 -2.4018826 34.765541 -2.3983283 34.740891 -27.000019 100.18842
4447000000 -25.815628 149.36603 -2.4042954 31.037077 -2.4003627 31.056761 -27.049868 93.685997
4448000000 -25.783375 146.68752 -2.4026711 27.317358 -2.4025347 27.313898 -26.982435 88.981407
4449000000 -25.84491 144.08228 -2.4024732 23.596802 -2.404043 23.619614 -26.960703 83.834648
4450000000 -25.914553 141.71898 -2.4016428 19.903257 -2.4029398 19.895578 -27.065701 78.853783
4451000000 -25.979557 139.40973 -2.4050031 16.174522 -2.4044485 16.148287 -26.914478 73.14856
4452000000 -26.017311 137.33038 -2.4047372 12.465009 -2.400903 12.469857 -27.013872 68.087959
4453000000 -26.027657 134.582 -2.3997581 8.7663717 -2.4003122 8.7070313 -27.005285 63.579521
4454000000 -26.102089 131.80052 -2.4041691 5.0295615 -2.4049211 4.9915438 -27.0522 58.581795
4455000000 -26.185133 129.19643 -2.4045949 1.3369932 -2.4019897 1.2983539 -27.016954 53.301979
4456000000 -26.248394 126.68542 -2.4019136 -2.3732834 -2.4060197 -2.4233291 -27.038151 48.977291
4457000000 -26.387877 124.40858 -2.4008212 -6.1058326 -2.4043882 -6.150672 -27.039665 44.415413
4458000000 -26.317959 121.82808 -2.4050579 -9.8289165 -2.4018538 -9.8253946 -27.044426 38.780956
4459000000 -26.480339 118.59399 -2.4060376 -13.506687 -2.4057398 -13.575318 -27.181765 34.759617
4460000000 -26.616268 115.38022 -2.4053364 -17.243326 -2.404496 -17.284466 -27.180748 29.995674
4461000000 -26.638699 112.90957 -2.4015038 -20.910713 -2.3977244 -20.989122 -27.195457 25.050463
4462000000 -26.747419 110.23418 -2.4030011 -24.683846 -2.4012275 -24.671429 -27.259295 21.059898
4463000000 -26.782755 107.61306 -2.4011028 -28.383816 -2.404566 -28.38801 -27.297787 15.750879
4464000000 -26.876205 104.93243 -2.4069791 -32.121391 -2.3995299 -32.136047 -27.387001 10.992844
4465000000 -26.957237 102.057 -2.4042866 -35.822636 -2.4037976 -35.846977 -27.289846 6.5317817
4466000000 -27.080835 99.461937 -2.4032414 -39.570057 -2.4025538 -39.567013 -27.434954 2.5946274
4467000000 -27.181253 97.001778 -2.3979006 -43.243389 -2.4029052 -43.303097 -27.46372 -2.1142612
4468000000 -27.352652 93.783859 -2.4056025 -46.979282 -2.4094329 -47.01519 -27.555685 -6.3931036
4469000000 -27.322664 90.312195 -2.4047565 -50.68544 -2.3954864 -50.723 -27.682037 -11.463065
4470000000 -27.396154 86.825676 -2.406671 -54.418255 -2.4037867 -54.451443 -27.701628 -16.11347
4471000000 -27.536312 84.793266 -2.4048953 -58.129951 -2.4059179 -58.121357 -27.781412 -21.042997
4472000000 -27.678562 82.284393 -2.4080989 -61.801258 -2.400949 -61.882629 -27.808695 -24.097479
4473000000 -27.874704 78.821152 -2.4065661 -65.521095 -2.4038515 -65.570358 -27.862379 -28.401178
4474000000 -28.008806 75.578758 -2.4023314 -69.295609 -2.3990002 -69.272575 -27.991877 -32.703522
4475000000 -28.156239 71.89505 -2.4032321 -73.024544 -2.3979695 -72.973412 -28.08379 -36.761414
4476000000 -28.175562 68.471268 -2.4046936 -76.69017 -2.3996334 -76.721375 -28.228861 -41.483185
4477000000 -28.349871 66.773857 -2.3998504 -80.389153 -2.4035656 -80.441376 -28.186153 -44.891212
4478000000 -28.553795 63.7897 -2.4052777 -84.134575 -2.4019208 -84.15094 -28.258219 -50.084629
4479000000 -28.597767 60.848141 -2.4012315 -87.875877 -2.4018321 -87.841408 -28.319933 -54.327541
4480000000 -28.769367 57.037697 -2.4030259 -91.585693 -2.399749 -91.581024 -28.436853 -58.130772
4481000000 -28.914661 54.582787 -2.4050138 -95.281746 -2.4050021 -95.313431 -28.496786 -62.117874
4482000000 -29.103683 50.959793 -2.4028323 -98.995995 -2.4029984 -99.023621 -28.633627 -65.598869
4483000000 -29.264772 48.485371 -2.408196 -102.71542 -2.4029062 -102.78667 -28.669048 -71.104652
4484000000 -29.325142 45.34409 -2.4055138 -106.45473 -2.4059799 -106.44506 -29.008158 -75.618172
4485000000 -29.500986 43.166191 -2.4078271 -110.15125 -2.4011078 -110.18409 -29.045671 -79.332726
4486000000 -29.616383 40.055332 -2.4038363 -113.88904 -2.4057236 -113.8859 -29.24848 -83.624336
4487000000 -29.758368 37.125206 -2.4038727 -117.59455 -2.4029155 -117.59332 -29.188597 -88.16227
4488000000 -29.73111 34.483051 -2.4044154 -121.32196 -2.4059746 -121.32014 -29.402367 -92.970108
4489000000 -29.855015 32.291424 -2.4066741 -125.05236 -2.4042847 -125.02959 -29.577848 -97.377884
4490000000 -29.932714 28.963486 -2.4051809 -128.74918 -2.4013336 -128.73547 -29.817547 -101.54354
4491000000 -29.929527 26.201433 -2.4101267 -132.47679 -2.4044733 -132.47461 -29.725561 -106.23844
4492000000 -29.943748 24.055536 -2.4073846 -136.16043 -2.4037831 -136.22147 -30.035105 -111.29032
4493000000 -30.098011 21.752316 -2.4034743 -139.92326 -2.4033139 -139.89708 -30.234278 -116.60245
4494000000 -30.147631 18.963503 -2.4073517 -143.59586 -2.4024489 -143.64304 -30.213236 -120.99824
4495000000 -30.036589 17.086514 -2.4068124 -147.34337 -2.4041176 -147.38136 -30.468298 -126.90942
4496000000 -30.147236 15.095534 -2.4061818 -151.06032 -2.4050772 -151.08725 -30.540953 -133.07935
4497000000 -29.908401 12.961283 -2.4056516 -154.77495 -2.4014831 -154.78369 -30.810986 -137.73563
4498000000 -30.134165 11.195535 -2.4089744 -158.48332 -2.404958 -158.55757 -30.658638 -143.94214
4499000000 -29.9739 8.951457 -2.4083166 -162.20703 -2.4050548 -162.22762 -30.774817 -149.68562
4500000000 -29.888912 6.8185806 -2.4056461 -165.91826 -2.4035351 -165.9671 -30.944695 -155.588
4501000000 -29.892117 4.9521356 -2.4089832 -169.64656 -2.4048045 -169.68277 -30.859106 -162.62975
4502000000 -29.732355 2.4397452 -2.409569 -173.36523 -2.4071603 -173.36087 -30.847546 -167.53455
4503000000 -29.661697 0.93659645 -2.4086502 -177.08772 -2.4082992 -177.08202 -30.726892 -175.19345
4504000000 -29.527025 -0.4851667 -2.4068747 179.20081 -2.4091754 179.19656 -30.593334 177.96382
4505000000 -29.430956 -3.5148523 -2.4100726 175.4799 -2.4083154 175.47054 -30.563938 173.01126
4506000000 -29.164818 -5.2581077 -2.4084966 171.77261 -2.4096568 171.73845 -30.4697 166.49823
4507000000 -29.026291 -6.7986627 -2.4095752 168.06346 -2.4075766 168.02831 -30.376457 160.7749
4508000000 -28.980902 -9.333643 -2.4121792 164.33992 -2.408191 164.34814 -30.264988 154.49767
4509000000 -28.64019 -11.458721 -2.412596 160.59683 -2.4093673 160.61287 -30.096264 148.46034
4510000000 -28.502247 -13.021121 -2.4117408 156.86603 -2.4134462 156.89127 -29.926157 143.07047
4511000000 -28.438707 -15.600429 -2.4124503 153.15775 -2.4155664 153.14462 -29.647152 137.43457
4512000000 -28.189062 -18.069466 -2.4104102 149.42929 -2.4150827 149.43019 -29.401243 131.0634
4513000000 -27.935369 -19.454735 -2.4120018 145.75034 -2.4119158 145.73224 -29.202717 126.26531
4514000000 -27.718245 -21.830978 -2.4181852 142.03871 -2.4131148 141.98804 -28.857822 120.75243
4515000000 -27.661095 -24.362549 -2.4199507 138.30345 -2.4121585 138.29645 -28.806963 116.03394
4516000000 -27.43951 -26.744238 -2.4140399 134.59821 -2.4145532 134.56525 -28.603409 110.55805
4517000000 -27.290176 -28.586887 -2.4196036 130.8569 -2.4154294 130.85747 -28.369572 104.74368
4518000000 -27.073689 -31.515272 -2.4182901 127.14838 -2.4110737 127.14436 -28.058022 99.309944
4519000000 -27.033566 -33.374966 -2.4197853 123.44672 -2.416714 123.44306 -28.153301 94.940544
4520000000 -26.74534 -35.705891 -2.4266026 119.7361 -2.4150717 119.72688 -27.81629 89.468636
4521000000 -26.603008 -38.036091 -2.4225581 116.025 -2.4214621 115.96307 -27.532969 84.471077
4522000000 -26.447731 -40.702728 -2.4185264 112.28406 -2.4205449 112.31792 -27.462749 78.983215
4523000000 -26.264698 -43.064346 -2.4210417 108.56527 -2.4145815 108.56916 -27.163773 73.589386
4524000000 -26.145714 -45.482063 -2.4234149 104.84623 -2.4230266 104.8637 -27.007614 69.301521
4525000000 -25.972155 -47.873146 -2.4255683 101.17105 -2.424607 101.14985 -26.870583 64.251717
4526000000 -25.841181 -50.32687 -2.4224441 97.418747 -2.4241121 97.417839 -26.663004 58.69379
4527000000 -25.68128 -52.920578 -2.4270139 93.745514 -2.4254177 93.684273 -26.600086 53.999393
4528000000 -25.619993 -55.485497 -2.4278631 89.998787 -2.423609 89.997452 -26.38217 49.098568
4529000000 -25.50342 -57.964314 -2.428576 86.284645 -2.4252064 86.29541 -26.194756 44.52145
4530000000 -25.373892 -60.308468 -2.4315224 82.608887 -2.4271019 82.562828 -26.094236 39.154629
4531000000 -25.206768 -62.432907 -2.4283299 78.866844 -2.4325385 78.846443 -25.928431 34.027859
4532000000 -25.077324 -64.902496 -2.4310806 75.14537 -2.426249 75.154541 -25.773443 29.49193
4533000000 -24.965347 -67.774757 -2.4283068 71.43322 -2.4323831 71.4226 -25.663811 23.925289
4534000000 -24.865555 -70.348015 -2.432591 67.722946 -2.4279525 67.687263 -25.504522 18.956137
4535000000 -24.844383 -72.745644 -2.4347725 64.015289 -2.4320872 64.013596 -25.444229 14.24978
4536000000 -24.659035 -75.04821 -2.4382789 60.309299 -2.4301369 60.268497 -25.295437 9.2692738
4537000000 -24.557379 -76.749229 -2.4285102 56.594059 -2.4292519 56.599308 -25.129066 4.5209103
4538000000 -24.525425 -78.999107 -2.4314573 52.886116 -2.4332221 52.879967 -25.052027 0.12663431
4539000000 -24.469053 -81.963013 -2.4334807 49.151581 -2.4368734 49.146027 -25.093801 -5.4957957
4540000000 -24.40398 -84.002357 -2.4367321 45.424316 -2.4287937 45.447277 -24.979771 -9.6199446
4541000000 -24.318134 -86.030144 -2.4336607 41.748142 -2.4350128 41.715069 -24.867615 -14.619171
4542000000 -24.30271 -88.27655 -2.4369099 38.026299 -2.433444 38.00515 -24.785591 -19.893133
4543000000 -24.235754 -90.701233 -2.4355516 34.304714 -2.4362426 34.311909 -24.761189 -24.780254
4544000000 -24.249966 -92.640045 -2.435926 30.609467 -2.4355998 30.567272 -24.771164 -29.333282
4545000000 -24.148815 -94.756264 -2.4385893 26.902719 -2.4341273 26.88835 -24.632107 -34.445869
4546000000 -24.12421 -97.262337 -2.435797 23.180376 -2.4375274 23.160175 -24.630108 -40.138149
4547000000 -24.099949 -98.991058 -2.4390991 19.451698 -2.4390132 19.415855 -24.688366 -44.779083
4548000000 -24.082756 -101.06168 -2.4439671 15.744585 -2.4329963 15.746 -24.646349 -49.433647
4549000000 -24.115728 -102.7164 -2.4404032 12.060606 -2.4345105 12.033608 -24.650652 -54.827576
4550000000 -24.029284 -104.48783 -2.439661 8.3248014 -2.4373844 8.328927 -24.685764 -60.417927
4551000000 -24.069576 -106.10458 -2.4450316 4.6220894 -2.4383373 4.5757265 -24.643942 -65.023643
4552000000 -24.082077 -108.41937 -2.4394512 0.91787934 -2.4365423 0.86773264 -24.772371 -70.416931
4553000000 -24.074978 -109.75236 -2.4414649 -2.82551 -2.4371848 -2.8378398 -24.793266 -76.150581
4554000000 -24.034916 -111.6304 -2.4418142 -6.5368829 -2.443819 -6.5411382 -24.755768 -81.060371
4555000000 -24.008995 -113.03305 -2.4373939 -10.265924 -2.4402952 -10.260283 -24.857239 -87.268311
4556000000 -24.007496 -114.57084 -2.4394629 -13.97533 -2.4421825 -13.982597 -24.942009 -92.112518
4557000000 -23.978048 -116.30388 -2.4415789 -17.684107 -2.4421539 -17.67399 -24.947882 -97.633064
4558000000 -24.084467 -118.2195 -2.4422953 -21.386299 -2.4433155 -21.407848 -25.054134 -103.82558
4559000000 -23.968151 -119.18002 -2.4453666 -25.141113 -2.4408092 -25.103395 -25.11257 -109.44578
4560000000 -24.034431 -120.46746 -2.4407947 -28.783829 -2.4467423 -28.840767 -25.047421 -115.72198
4561000000 -24.020851 -122.43732 -2.4443502 -32.544418 -2.4404614 -32.560097 -25.123608 -121.26839
4562000000 -23.984968 -123.70409 -2.4417379 -36.228901 -2.4405358 -36.300598 -25.15148 -127.06827
4563000000 -23.994204 -125.29798 -2.4422743 -39.969334 -2.4384208 -39.993767 -25.164289 -133.48109
4564000000 -23.981977 -126.59936 -2.4384799 -43.681828 -2.4388366 -43.689972 -25.130705 -139.46121
4565000000 -23.950325 -128.13173 -2.4457476 -47.366104 -2.4379354 -47.411419 -25.20421 -145.42804
4566000000 -23.988852 -129.34047 -2.4485233 -51.08815 -2.4425478 -51.15205 -25.185772 -151.5374
4567000000 -23.945333 -131.21295 -2.4431157 -54.837467 -2.4446821 -54.847481 -25.196562 -157.5813
4568000000 -23.887899 -132.66655 -2.4440818 -58.520885 -2.4437609 -58.540413 -25.150354 -163.02505
4569000000 -23.922441 -134.1917 -2.4470735 -62.257442 -2.4473548 -62.28516 -25.164986 -169.39365
4570000000 -23.889225 -135.67131 -2.4473152 -65.96553 -2.4453003 -65.957047 -25.162731 -175.48566
4571000000 -23.873831 -137.62489 -2.4425724 -69.668755 -2.4451592 -69.711555 -25.091393 179.10225
4572000000 -23.804548 -138.87038 -2.4489965 -73.379967 -2.4449511 -73.439865 -25.155796 172.8912
4573000000 -23.811613 -140.01459 -2.4486208 -77.104179 -2.4438426 -77.16954 -25.051229 166.96654
4574000000 -23.786715 -141.86017 -2.4474654 -80.832878 -2.4445488 -80.808388 -25.022589 160.98872
4575000000 -23.726791 -143.11642 -2.448899 -84.49868 -2.4482276 -84.557014 -25.007811 155.29411
4576000000 -23.670034 -144.48964 -2.4482305 -88.238449 -2.4469311 -88.270699 -24.979166 148.88992
4577000000 -23.677975 -146.95122 -2.4463873 -91.962227 -2.4463286 -91.977669 -25.008331 143.20959
4578000000 -23.653788 -148.3324 -2.4482827 -95.689636 -2.445719 -95.712227 -25.089609 137.6804
4579000000 -23.589233 -150.1064 -2.4508531 -99.355865 -2.4482822 -99.390617 -24.939383 131.43889
4580000000 -23.588703 -151.30562 -2.4516706 -103.10185 -2.4523213 -103.09947 -24.881472 126.30126
4581000000 -23.485519 -153.12346 -2.4526477 -106.79182 -2.4492967 -106.84013 -24.929491 119.70293
4582000000 -23.496775 -154.84758 -2.4505467 -110.5334 -2.45014 -110.53855 -24.984287 114.23878
4583000000 -23.538723 -156.34796 -2.4546142 -114.25857 -2.4454353 -114.25851 -24.899761 108.37642
4584000000 -23.496204 -158.55231 -2.4548037 -117.95337 -2.4461958 -117.97387 -24.968548 103.23494
4585000000 -23.425394 -159.93167 -2.4520781 -121.64736 -2.4514976 -121.71758 -24.903368 97.466324
4586000000 -23.481504 -161.87119 -2.4532647 -125.35479 -2.4509354 -125.40532 -24.878654 91.644539
4587000000 -23.462334 -163.62381 -2.4545941 -129.10861 -2.4511626 -129.07953 -24.817028 85.45504
4588000000 -23.534035 -165.44191 -2.4540808 -132.78792 -2.4514885 -132.80222 -24.826904 79.764961
4589000000 -23.423189 -167.34628 -2.4566815 -136.50844 -2.4528935 -136.54718 -24.822075 74.497986
4590000000 -23.459526 -169.31349 -2.4531732 -140.2189 -2.450089 -140.22385 -24.822891 68.591209
4591000000 -23.474302 -171.37575 -2.4567869 -143.9518 -2.450794 -143.96408 -24.819147 63.059429
4592000000 -23.500622 -173.44951 -2.4554448 -147.61792 -2.4497077 -147.67723 -24.765087 57.237175
4593000000 -23.533991 -175.19186 -2.4516442 -151.36377 -2.4481959 -151.39021 -24.791971 51.837784
4594000000 -23.565994 -176.77141 -2.4531517 -155.07838 -2.4534855 -155.09068 -24.774599 46.268021
4595000000 -23.592669 -178.61945 -2.4555964 -158.75354 -2.4492259 -158.81155 -24.782303 40.440517
4596000000 -23.608494 178.5186 -2.4584494 -162.53041 -2.4555874 -162.52791 -24.773418 35.485405
4597000000 -23.689407 177.18559 -2.455523 -166.22226 -2.4469948 -166.22258 -24.715855 30.540319
4598000000 -23.722937 175.14851 -2.4567544 -169.93314 -2.4523439 -169.93843 -24.762928 25.076645
4599000000 -23.830938 172.78902 -2.4550407 -173.62123 -2.4515367 -173.65688 -24.697954 19.751617
4600000000 -23.840572 170.60406 -2.4546156 -177.35258 -2.4547346 -177.37566 -24.715458 14.645083
4601000000 -23.967924 168.74693 -2.4538643 178.92844 -2.4509397 178.9183 -24.785019 9.3779745
4602000000 -24.069916 166.9055 -2.4514854 175.2446 -2.4574144 175.22939 -24.769743 4.0364995
4603000000 -24.141769 164.01109 -2.4539523 171.50803 -2.4480426 171.50633 -24.923883 -0.16814654
4604000000 -24.268545 162.32922 -2.452064 167.8127 -2.4502158 167.77541 -24.962353 -5.2786646
4605000000 -24.429777 160.34471 -2.4520292 164.097 -2.4513097 164.05339 -24.98073 -10.411055
4606000000 -24.503262 157.90028 -2.4514034 160.38916 -2.4495785 160.34521 -25.079033 -15.174756
4607000000 -24.616613 155.9155 -2.452312 156.67575 -2.4470751 156.65886 -25.220667 -19.841547
4608000000 -24.768383 153.97838 -2.4548798 152.96983 -2.4487827 152.92726 -25.336197 -24.444923
4609000000 -24.954569 151.96356 -2.4527969 149.23369 -2.4548423 149.21246 -25.376961 -29.446774
4610000000 -25.093708 149.7502 -2.4537897 145.51614 -2.4490566 145.50996 -25.49085 -33.580788
4611000000 -25.176325 147.9173 -2.4510074 141.79202 -2.4488068 141.76839 -25.739271 -39.316406
4612000000 -25.44459 146.33821 -2.449255 138.09718 -2.4490948 138.05319 -25.962788 -43.814781
4613000000 -25.633221 144.44675 -2.4535315 134.4041 -2.4469025 134.35162 -26.134428 -48.74139
4614000000 -25.823742 142.68254 -2.4490077 130.6443 -2.4532642 130.64677 -26.373327 -54.069069
4615000000 -26.02079 140.59813 -2.4457722 126.96181 -2.446408 126.90141 -26.67639 -58.502655
4616000000 -26.250553 138.56166 -2.4540963 123.22263 -2.4415116 123.22337 -26.995752 -64.295036
4617000000 -26.434275 136.92151 -2.4449651 119.49821 -2.4486945 119.51685 -27.198084 -69.710358
4618000000 -26.589367 135.85225 -2.4453547 115.81302 -2.4461753 115.76007 -27.505289 -74.971596
4619000000 -26.815359 133.46416 -2.4487453 112.1045 -2.4469342 112.06813 -27.747967 -80.827927
4620000000 -27.016771 132.83464 -2.4447794 108.3456 -2.4413378 108.354 -28.146456 -86.40274
4621000000 -27.199854 130.698 -2.445832 104.6879 -2.4458461 104.66536 -28.316133 -93.565498
4622000000 -27.426756 128.95389 -2.4468665 100.90839 -2.4443448 100.93629 -28.742767 -98.461655
4623000000 -27.531851 128.20114 -2.4436936 97.208565 -2.4413886 97.193153 -28.901081 -105.79375
4624000000 -27.804676 126.19766 -2.4421208 93.490746 -2.4423008 93.449104 -29.157776 -112.13428
4625000000 -27.98563 125.55952 -2.4492836 89.760574 -2.4431694 89.761551 -29.614506 -118.06635
4626000000 -28.07629 124.8119 -2.4474463 86.064133 -2.4443493 86.039131 -29.925261 -126.24216
4627000000 -28.296436 123.80573 -2.4451456 82.321602 -2.442591 82.305695 -30.040432 -132.75053
4628000000 -28.385313 123.52769 -2.4465187 78.637337 -2.4487631 78.587036 -30.248955 -139.99629
4629000000 -28.403528 121.76447 -2.4488037 74.902565 -2.4480994 74.87664 -30.41865 -146.20392
4630000000 -28.570507 121.17716 -2.4432225 71.173378 -2.4430556 71.158005 -30.610559 -153.6624
4631000000 -28.706627 120.0113 -2.4429781 67.470451 -2.4450307 67.382629 -30.709047 -161.2011
4632000000 -28.79002 118.72123 -2.4466305 63.753979 -2.4450915 63.733418 -30.864017 -169.08339
4633000000 -28.685322 117.96822 -2.4444144 60.012794 -2.4434569 60.01733 -30.742207 -175.48447
4634000000 -28.766087 116.69963 -2.4462876 56.315403 -2.4461062 56.28027 -30.785225 177.07599
4635000000 -28.81278 115.00835 -2.4469593 52.612473 -2.4402883 52.561462 -30.768345 169.35095
4636000000 -28.813423 113.88926 -2.4451089 48.879879 -2.440094 48.852455 -30.792406 162.4267
4637000000 -28.69215 113.00015 -2.4509888 45.161613 -2.4442694 45.142311 -30.685518 155.53777
4638000000 -28.722786 111.14964 -2.4433801 41.422745 -2.4465246 41.45546 -30.530621 149.42262
4639000000 -28.754128 108.79717 -2.4447415 37.728939 -2.4438195 37.693977 -30.487339 144.39302
4640000000 -28.619291 107.9901 -2.4507484 33.997875 -2.4459422 33.977646 -30.25802 137.56789
4641000000 -28.659079 106.02239 -2.4455671 30.276398 -2.446629 30.263021 -30.111353 129.89891
4642000000 -28.501036 104.64195 -2.4499066 26.584282 -2.4479816 26.518259 -30.054989 125.15336
4643000000 -28.581636 102.57198 -2.4495943 22.830227 -2.4440057 22.849909 -29.985359 119.31301
4644000000 -28.45323 100.98926 -2.4524009 19.14694 -2.4457924 19.092342 -29.811161 113.78825
4645000000 -28.436918 98.459984 -2.4533613 15.428754 -2.4488788 15.359847 -29.683075 108.62073
4646000000 -28.382578 95.514259 -2.4481595 11.698194 -2.4484391 11.683035 -29.513805 102.96075
4647000000 -28.354067 93.1754 -2.4488323 7.9915333 -2.4495075 7.9520264 -29.348766 97.254906
4648000000 -28.218311 91.026535 -2.4548361 4.2733707 -2.4513547 4.2273493 -29.167566 92.570068
4649000000 -28.238262 87.65744 -2.451977 0.52701348 -2.4494925 0.51786244 -29.055899 87.082016
4650000000 -28.102062 84.515114 -2.4508836 -3.1556029 -2.4493568 -3.1884732 -28.866274 82.714813
4651000000 -27.983351 82.287453 -2.4553399 -6.8720851 -2.449255 -6.912787 -28.660597 77.568344
4652000000 -27.921324 79.688545 -2.4542971 -10.620346 -2.4501476 -10.61665 -28.509678 72.95459
4653000000 -27.855743 76.538902 -2.4527197 -14.314495 -2.4547446 -14.377881 -28.427654 68.711891
4654000000 -27.855335 73.790466 -2.4521558 -18.059772 -2.4520736 -18.082281 -28.221449 64.498459
4655000000 -27.654219 69.860611 -2.4568 -21.743052 -2.4523826 -21.79504 -28.033758 59.811584
4656000000 -27.765083 67.077324 -2.4602251 -25.487852 -2.4520648 -25.499834 -27.839798 55.411697
4657000000 -27.642092 62.726254 -2.4594634 -29.185112 -2.4548278 -29.230928 -27.838398 50.989353
4658000000 -27.524185 59.966427 -2.4550617 -32.901184 -2.4573009 -32.932133 -27.557869 47.588196
4659000000 -27.446032 56.848 -2.4570329 -36.614037 -2.4532743 -36.620457 -27.503141 42.688637
4660000000 -27.435318 53.454792 -2.4563451 -40.337601 -2.4597125 -40.358616 -27.34087 38.363686
4661000000 -27.313421 49.979401 -2.4593124 -44.077499 -2.4602656 -44.077332 -27.235067 34.958126
4662000000 -27.34684 45.71122 -2.4613914 -47.771969 -2.4577558 -47.779968 -27.033978 31.092813
4663000000 -27.281782 42.593334 -2.4531868 -51.488247 -2.4603951 -51.520893 -26.889051 27.477501
4664000000 -27.136311 38.764652 -2.4587579 -55.218121 -2.4596276 -55.204128 -26.803011 23.917011
4665000000 -27.072035 35.266174 -2.461983 -58.928791 -2.4612815 -58.937908 -26.696779 20.041849
4666000000 -27.071886 31.839497 -2.4658527 -62.658367 -2.4539919 -62.671413 -26.581512 16.367821
4667000000 -26.951292 27.943787 -2.458329 -66.325386 -2.4579318 -66.390991 -26.577858 13.052149
4668000000 -26.943642 24.549206 -2.4610608 -70.093475 -2.4579787 -70.108047 -26.409372 8.8115168
4669000000 -26.835514 20.71435 -2.4636607 -73.751076 -2.4566426 -73.799911 -26.350395 5.7737646
4670000000 -26.788986 17.218779 -2.4655583 -77.492645 -2.4605393 -77.504295 -26.217052 2.0218811
4671000000 -26.663872 13.6583 -2.4621384 -81.220428 -2.4619212 -81.247169 -26.140474 -1.9013481
4672000000 -26.590384 9.8679647 -2.4620624 -84.926765 -2.4644144 -84.963203 -26.113605 -5.4409924
4673000000 -26.525742 6.3565969 -2.4663758 -88.64183 -2.4592984 -88.688866 -26.060429 -8.6943932
4674000000 -26.594238 2.7296705 -2.4643321 -92.349876 -2.4634643 -92.390297 -26.063635 -12.272147
4675000000 -26.49577 -0.89775103 -2.4669201 -96.056 -2.4647617 -96.089882 -25.976362 -15.563131
4676000000 -26.386751 -4.5866055 -2.46716 -99.786575 -2.467968 -99.834526 -25.91548 -19.620432
4677000000 -26.363878 -7.8617525 -2.4678075 -103.50306 -2.4622877 -103.52868 -25.868582 -23.367735
4678000000 -26.312056 -11.193649 -2.4679506 -107.22016 -2.4627609 -107.23021 -25.789963 -26.618275
4679000000 -26.217216 -14.267327 -2.4682169 -110.92254 -2.4617405 -110.99395 -25.83853 -30.901176
4680000000 -26.237309 -18.40044 -2.4672153 -114.64116 -2.4639258 -114.67173 -25.721176 -34.682396
4681000000 -26.216305 -21.231058 -2.473305 -118.36398 -2.4608896 -118.33514 -25.720407 -37.997353
4682000000 -26.160021 -24.26285 -2.4653289 -122.1063 -2.4672067 -122.11791 -25.76133 -42.474117
4683000000 -26.161428 -27.814629 -2.4639118 -125.80188 -2.4661803 -125.82002 -25.770885 -46.521816
4684000000 -26.154558 -31.07777 -2.4723713 -129.53976 -2.4619253 -129.52693 -25.772154 -49.991852
4685000000 -26.112219 -33.835403 -2.4676621 -133.23143 -2.4659464 -133.27182 -25.74819 -54.270638
4686000000 -26.108633 -36.944363 -2.4706044 -136.93646 -2.4669788 -136.93634 -25.766188 -58.436184
4687000000 -26.021423 -39.652576 -2.4689884 -140.64026 -2.4672637 -140.65588 -25.776426 -62.624012
4688000000 -26.028416 -42.411221 -2.4731784 -144.37456 -2.4724917 -144.3943 -25.847002 -66.738991
4689000000 -25.960266 -45.898499 -2.4691329 -148.09499 -2.4691703 -148.10036 -25.846584 -71.04657
4690000000 -25.840986 -48.547806 -2.4703395 -151.82912 -2.4670925 -151.83087 -25.755449 -75.746826
4691000000 -25.892632 -50.974651 -2.4702902 -155.51111 -2.4680474 -155.51895 -25.764938 -79.908119
4692000000 -25.957724 -53.797562 -2.4705343 -159.2477 -2.4697864 -159.25499 -25.947489 -84.629494
4693000000 -25.950762 -56.57922 -2.4709198 -162.94574 -2.4726481 -162.99435 -25.996279 -88.858917
4694000000 -25.869663 -58.508514 -2.4747167 -166.65865 -2.4715719 -166.70552 -25.955036 -93.59951
4695000000 -25.893429 -61.20409 -2.4697928 -170.3725 -2.4688325 -170.40094 -25.94302 -98.196632
4696000000 -25.832314 -63.69973 -2.4718807 -174.09259 -2.4688814 -174.10826 -26.044424 -103.25331
4697000000 -25.745392 -65.720154 -2.4721811 -177.81219 -2.4750621 -177.83472 -26.060846 -108.28101
4698000000 -25.902372 -68.026894 -2.4699602 178.47412 -2.4737346 178.41182 -26.259602 -113.26225
4699000000 -25.658026 -70.319473 -2.4735887 174.76027 -2.4658797 174.75333 -26.282253 -118.54619
4700000000 -25.727865 -72.173424 -2.4734035 171.05499 -2.4713597 171.01642 -26.237711 -123.79532
4701000000 -25.759573 -73.654114 -2.474503 167.29491 -2.4695368 167.31015 -26.411366 -128.599
4702000000 -25.778717 -75.58609 -2.4729702 163.61177 -2.4743981 163.55876 -26.50358 -134.48732
4703000000 -25.632156 -76.687103 -2.478307 159.88191 -2.4771094 159.85471 -26.640501 -140.20969
4704000000 -25.637686 -79.024666 -2.4774969 156.15608 -2.4745827 156.16611 -26.711735 -145.74002
4705000000 -25.554867 -80.617989 -2.4792378 152.47749 -2.4718308 152.44199 -26.709599 -151.03394
4706000000 -25.476109 -82.391495 -2.4797606 148.74243 -2.4759831 148.73082 -26.835548 -158.06258
4707000000 -25.448675 -83.77301 -2.4789932 145.02661 -2.4741497 145.01743 -26.845959 -164.22803
4708000000 -25.335203 -84.975296 -2.4759026 141.31915 -2.4679656 141.29829 -26.876335 -170.44995
4709000000 -25.371634 -86.498146 -2.4773622 137.57471 -2.4734235 137.54332 -26.995998 -176.53024
4710000000 -25.251495 -88.032646 -2.4770308 133.89336 -2.4721467 133.85793 -26.925825 176.97914
4711000000 -25.172674 -89.514664 -2.4792089 130.17627 -2.4750183 130.13841 -26.9368 170.08292
4712000000 -25.035852 -90.398666 -2.4757795 126.46883 -2.4816208 126.43897 -26.998688 163.37241
4713000000 -24.889477 -92.160522 -2.4782174 122.71182 -2.4817748 122.69174 -26.860573 156.29558
4714000000 -24.775087 -93.422417 -2.4846339 119.00889 -2.4764583 118.964 -26.763908 149.41737
4715000000 -24.660851 -94.737038 -2.4816108 115.31893 -2.4793131 115.23951 -26.711874 142.86165
4716000000 -24.514143 -95.771858 -2.4826992 111.55469 -2.4795105 111.53725 -26.493086 135.66882
4717000000 -24.431746 -97.961861 -2.4833217 107.83019 -2.4812431 107.83722 -26.415407 129.55789
4718000000 -24.347754 -99.3853 -2.4887977 104.13571 -2.4822595 104.09601 -26.202812 123.05827
4719000000 -24.186338 -101.02573 -2.48195 100.43288 -2.480953 100.41202 -25.991367 116.60503
4720000000 -24.051126 -102.46823 -2.4856298 96.720024 -2.4833112 96.65049 -25.781811 110.35764
4721000000 -23.922749 -103.90042 -2.4830017 92.984322 -2.4898171 92.947441 -25.530201 104.26625
4722000000 -23.787632 -105.51754 -2.4863331 89.291565 -2.4815621 89.265442 -25.33707 98.626152
4723000000 -23.695515 -107.42624 -2.4881403 85.548866 -2.4906502 85.513969 -25.19615 92.94548
4724000000 -23.546806 -109.10558 -2.4890873 81.856468 -2.4874415 81.8088 -24.915867 86.754982
4725000000 -23.437609 -111.24812 -2.491015 78.132942 -2.4870055 78.095955 -24.811808 80.928749
4726000000 -23.325415 -112.97137 -2.487566 74.435783 -2.4929135 74.379822 -24.513052 75.954857
4727000000 -23.251223 -114.59891 -2.4911444 70.705612 -2.4905946 70.69838 -24.375788 70.252861
4728000000 -23.095001 -116.66544 -2.4954314 66.972687 -2.4904399 66.96286 -24.196367 65.476318
4729000000 -22.970875 -118.51001 -2.4963865 63.284218 -2.4968562 63.274578 -24.012278 59.961884
4730000000 -22.91703 -121.01125 -2.4961782 59.564632 -2.4921851 59.55809 -23.901337 54.633446
4731000000 -22.741497 -122.70293 -2.4998434 55.850761 -2.4966891 55.841831 -23.745148 49.488003
4732000000 -22.737764 -124.93789 -2.4972048 52.155746 -2.497998 52.117203 -23.653767 44.56966
4733000000 -22.647217 -126.77972 -2.5025361 48.423893 -2.5000718 48.382336 -23.50316 39.899899
4734000000 -22.607027 -128.61325 -2.4993298 44.690498 -2.4968381 44.722111 -23.356409 34.835007
4735000000 -22.549856 -131.25722 -2.5041108 40.994736 -2.4994981 40.998489 -23.319693 29.683146
4736000000 -22.516165 -133.237 -2.5040357 37.30994 -2.4974174 37.265797 -23.25803 24.537111
4737000000 -22.472511 -134.82004 -2.4997435 33.587498 -2.5020041 33.578579 -23.164164 18.847256
4738000000 -22.353643 -137.61444 -2.5066378 29.893225 -2.502104 29.870405 -23.120144 14.612666
4739000000 -22.405848 -139.4377 -2.5011311 26.159517 -2.5004888 26.147745 -22.981697 9.1071844
4740000000 -22.331644 -141.50433 -2.503042 22.473566 -2.5026743 22.438221 -22.968052 4.1399117
4741000000 -22.348869 -143.53275 -2.504554 18.774874 -2.502492 18.714794 -22.939676 -0.79550123
4742000000 -22.346199 -145.82697 -2.5057182 15.057159 -2.5041416 15.016932 -22.942837 -5.8075452
4743000000 -22.275869 -147.94807 -2.5064263 11.325439 -2.5022976 11.335228 -23.029602 -11.247206
4744000000 -22.224812 -149.68698 -2.5059874 7.6252155 -2.5006688 7.5907111 -22.934778 -16.456129
4745000000 -22.254593 -151.68825 -2.5065672 3.9077706 -2.5031424 3.9066727 -22.940424 -21.535175
4746000000 -22.270645 -153.98198 -2.5033658 0.21404424 -2.5031221 0.18650773 -22.931829 -26.777935
4747000000 -22.292118 -156.00002 -2.5060096 -3.4720769 -2.5100813 -3.5291808 -22.936695 -31.625143
4748000000 -22.276361 -157.86725 -2.5035191 -7.2074814 -2.504612 -7.2419667 -22.990189 -36.954315
4749000000 -22.324156 -160.26498 -2.5052264 -10.933916 -2.5041656 -10.959881 -23.083601 -42.105885
4750000000 -22.335157 -161.96428 -2.5015755 -14.636271 -2.5032289 -14.662736 -23.020885 -47.624519
4751000000 -22.39839 -163.93262 -2.5048504 -18.309399 -2.504061 -18.36051 -23.02145 -52.138237
4752000000 -22.470821 -165.75273 -2.5072341 -22.025381 -2.5061464 -22.052229 -23.034847 -57.755322
4753000000 -22.4911 -167.42767 -2.50506 -25.763184 -2.5006542 -25.805199 -23.189547 -62.806854
4754000000 -22.545979 -169.39664 -2.5044563 -29.488327 -2.5038223 -29.496361 -23.215002 -67.985199
4755000000 -22.623013 -171.11041 -2.5047882 -33.208549 -2.5009694 -33.196152 -23.286997 -73.409187
4756000000 -22.675659 -172.81071 -2.4998887 -36.892464 -2.50158 -36.954887 -23.387747 -78.298912
4757000000 -22.775688 -174.20648 -2.5030336 -40.620556 -2.5032976 -40.60371 -23.417152 -83.890236
4758000000 -22.800858 -176.0663 -2.5087526 -44.310921 -2.5004096 -44.331158 -23.542278 -88.837456
4759000000 -22.914364 -177.56367 -2.5020096 -48.00523 -2.499397 -48.057045 -23.738073 -94.301407
4760000000 -23.008799 -179.62889 -2.5041761 -51.75832 -2.5054619 -51.789097 -23.797585 -99.260132
4761000000 -23.1362 179.18114 -2.5069623 -55.45285 -2.5037165 -55.469395 -23.895109 -104.64031
4762000000 -23.166962 177.62784 -2.5029299 -59.156494 -2.5004616 -59.197655 -24.125278 -110.33096
4763000000 -23.303314 175.88164 -2.5015755 -62.889973 -2.4977233 -62.911297 -24.241219 -115.3073
4764000000 -23.47472 174.81033 -2.5053034 -66.593575 -2.5004032 -66.644943 -24.414465 -120.9609
4765000000 -23.60047 172.89201 -2.5011306 -70.316399 -2.4980588 -70.328362 -24.532942 -126.74969
4766000000 -23.672861 172.29156 -2.5002236 -74.035316 -2.5001919 -74.048317 -24.852268 -132.56125
4767000000 -23.812635 170.95192 -2.4988239 -77.7714 -2.5026684 -77.748642 -24.999018 -138.68922
4768000000 -23.910444 169.73483 -2.5001149 -81.479057 -2.4956038 -81.49485 -25.28677 -144.52081
4769000000 -24.021898 168.21672 -2.5008738 -85.171974 -2.4919233 -85.227287 -25.505239 -150.79665
4770000000 -24.040846 167.44432 -2.4994314 -88.89743 -2.4993975 -88.91983 -25.686556 -156.72615
4771000000 -24.177195 166.58914 -2.5009871 -92.608955 -2.4965193 -92.638138 -25.910082 -163.71645
4772000000 -24.255497 164.36656 -2.4995544 -96.308159 -2.49599 -96.350922 -26.091396 -170.34122
4773000000 -24.362082 163.87805 -2.4962761 -100.02159 -2.4981673 -100.09422 -26.291353 -177.46118
4774000000 -24.366945 162.80731 -2.497077 -103.7562 -2.4992359 -103.79836 -26.42869 176.0112
4775000000 -24.485302 161.92397 -2.4992225 -107.48099 -2.4959579 -107.51215 -26.591171 168.59442
4776000000 -24.536818 160.44348 -2.4971809 -111.19552 -2.4994693 -111.21066 -26.735762 161.20595
4777000000 -24.506166 159.71997 -2.4974675 -114.89603 -2.4979188 -114.96745 -26.82028 154.38727
4778000000 -24.515934 158.89987 -2.5027659 -118.64812 -2.4964826 -118.68511 -26.827667 146.38445
4779000000 -24.579399 156.88947 -2.5001187 -122.37497 -2.4978461 -122.38078 -26.901331 139.1335
4780000000 -24.595201 156.53816 -2.4976916 -126.0886 -2.4991682 -126.09965 -26.784386 131.15163
4781000000 -24.604336 155.27422 -2.5007513 -129.79587 -2.4995613 -129.80623 -26.760572 123.75026
4782000000 -24.603064 153.60973 -2.5043006 -133.51851 -2.4966435 -133.55304 -26.598145 116.95995
4783000000 -24.637943 152.08641 -2.4990163 -137.22714 -2.5004151 -137.24634 -26.491806 110.19006
4784000000 -24.525944 150.94547 -2.5006335 -140.93976 -2.503139 -140.97078 -26.363476 103.49638
4785000000 -24.51692 149.23431 -2.5024672 -144.67825 -2.4988821 -144.68816 -26.209446 97.490204
4786000000 -24.419783 147.68581 -2.5020154 -148.40062 -2.5074446 -148.40088 -26.065046 91.062073
4787000000 -24.346207 146.12094 -2.5025568 -152.10043 -2.5056233 -152.15323 -25.977289 85.633202
4788000000 -24.350636 144.093 -2.5007424 -155.83388 -2.5058165 -155.80562 -25.710186 79.215111
4789000000 -24.296745 142.41518 -2.5054352 -159.50134 -2.5048509 -159.55731 -25.541878 72.692184
4790000000 -24.334219 140.4906 -2.504715 -163.203 -2.5007715 -163.23701 -25.415117 67.487045
4791000000 -24.136953 138.67831 -2.5072105 -166.94156 -2.5067143 -166.97864 -25.218439 62.427368
4792000000 -24.194685 136.30701 -2.5052028 -170.65453 -2.5079491 -170.65955 -25.06146 56.159416
4793000000 -24.107296 133.82127 -2.505708 -174.39317 -2.5052762 -174.39706 -24.966694 51.389252
4794000000 -24.131428 131.59047 -2.5062714 -178.08266 -2.5071557 -178.10066 -24.885624 46.402126
4795000000 -24.121729 129.75082 -2.503335 178.19919 -2.508194 178.18883 -24.724339 41.496944
4796000000 -24.079823 127.14158 -2.5074091 174.49651 -2.5090954 174.46115 -24.651499 37.09866
4797000000 -24.052633 125.18053 -2.5061011 170.76166 -2.5111656 170.74142 -24.558838 31.908302
4798000000 -24.034843 122.07287 -2.5070021 167.03702 -2.5151606 167.0247 -24.474182 27.502237
4799000000 -24.042761 120.17792 -2.5070777 163.34561 -2.5074134 163.31416 -24.40173 22.555206
4800000000 -24.09911 117.50158 -2.5084682 159.62306 -2.504441 159.63754 -24.462822 18.064428
4801000000 -24.088676 115.01444 -2.5119562 155.91388 -2.5104005 155.90547 -24.300995 13.657375
4802000000 -24.086409 112.50954 -2.5124562 152.20215 -2.5061214 152.1985 -24.335501 8.9563389
4803000000 -24.136698 109.78648 -2.5093665 148.50099 -2.5065894 148.47887 -24.347027 4.3951869
4804000000 -24.193705 107.05984 -2.511071 144.7831 -2.5051196 144.7457 -24.295219 -0.094117656
4805000000 -24.271793 104.2328 -2.5130601 141.08578 -2.5045936 141.05359 -24.285625 -4.7056351
4806000000 -24.323343 101.43927 -2.513319 137.35573 -2.5083048 137.37164 -24.247435 -8.5758486
4807000000 -24.370764 98.28183 -2.5131395 133.62079 -2.5107341 133.62527 -24.228313 -12.130047
4808000000 -24.518524 95.929375 -2.5102551 129.91716 -2.5065382 129.91637 -24.296755 -16.825052
4809000000 -24.555777 92.527855 -2.513654 126.20248 -2.5018113 126.18328 -24.370106 -20.991854
4810000000 -24.636692 89.752831 -2.511286 122.47946 -2.5082042 122.48512 -24.340597 -24.917355
4811000000 -24.773132 86.483986 -2.513901 118.78359 -2.5035307 118.78994 -24.458378 -29.117247
4812000000 -24.896591 83.275078 -2.5132878 115.04895 -2.5073309 115.07948 -24.427019 -33.103664
4813000000 -24.975475 80.872185 -2.5117509 111.3544 -2.5089834 111.33667 -24.495031 -37.378948
4814000000 -25.089958 77.448647 -2.5123191 107.65368 -2.504437 107.60641 -24.578968 -40.842628
4815000000 -25.215849 74.063469 -2.5062041 103.94337 -2.5081933 103.91145 -24.504354 -45.065453
4816000000 -25.355999 70.77002 -2.5094755 100.23123 -2.5114551 100.21174 -24.715725 -49.389069
4817000000 -25.488575 67.39846 -2.5100882 96.535645 -2.5068891 96.48378 -24.691366 -52.922169
4818000000 -25.603336 64.766167 -2.506175 92.790932 -2.5036054 92.779648 -24.838276 -56.547562
4819000000 -25.803162 60.78661 -2.5107956 89.088402 -2.5072432 89.060661 -24.984138 -59.972061
4820000000 -25.909998 57.181995 -2.5058615 85.381447 -2.5107775 85.371521 -25.086214 -64.189445
4821000000 -26.059067 53.892365 -2.5091059 81.665367 -2.5026283 81.633331 -25.214844 -67.368584
4822000000 -26.224157 50.643726 -2.5044463 77.954872 -2.504966 77.909248 -25.303255 -70.8881
4823000000 -26.381231 47.031124 -2.5083098 74.187775 -2.5054421 74.219276 -25.471851 -75.00116
4824000000 -26.536695 43.380299 -2.5053918 70.508423 -2.5098178 70.495026 -25.609861 -77.730843
4825000000 -26.761057 41.01767 -2.510951 66.785919 -2.5031517 66.752296 -25.749836 -81.448898
4826000000 -26.847525 36.549068 -2.5029876 63.058739 -2.5049891 63.078773 -25.929564 -84.403053
4827000000 -27.036589 33.230282 -2.5033505 59.340649 -2.5071104 59.342789 -26.164398 -88.91423
4828000000 -27.107224 29.712822 -2.5057006 55.635468 -2.5049467 55.591625 -26.307459 -91.971352
4829000000 -27.391327 26.717541 -2.5078962 51.944073 -2.5037012 51.897804 -26.519794 -95.354225
4830000000 -27.449907 23.246477 -2.5019789 48.205006 -2.5017238 48.169041 -26.678255 -99.340256
4831000000 -27.597746 19.568779 -2.5000782 44.499763 -2.50144 44.474548 -26.994055 -102.40905
4832000000 -27.789398 16.278666 -2.5057228 40.762001 -2.5035689 40.738949 -27.249514 -106.52342
4833000000 -27.820164 13.201562 -2.4961846 37.055851 -2.5052683 37.05574 -27.448982 -110.19214
4834000000 -28.073381 10.101136 -2.5047209 33.300434 -2.5053484 33.313984 -27.712587 -114.17195
4835000000 -28.271671 7.1726284 -2.5056436 29.610086 -2.5017869 29.58157 -28.023724 -118.22018
4836000000 -28.28117 4.267941 -2.5018992 25.888939 -2.5007453 25.876442 -28.338388 -122.22427
4837000000 -28.561745 0.67868751 -2.5001163 22.14481 -2.504601 22.167339 -28.421925 -126.42538
4838000000 -28.569162 -1.1540744 -2.5078976 18.454271 -2.5008283 18.443573 -28.879635 -131.1799
4839000000 -28.602827 -3.7832606 -2.5101149 14.772575 -2.5020654 14.71805 -29.265736 -135.04442
4840000000 -28.835949 -6.7129235 -2.5065281 10.99886 -2.4985156 10.992982 -29.329329 -140.94109
4841000000 -28.959593 -10.026161 -2.4989192 7.2895679 -2.5042043 7.3292432 -29.576365 -144.72031
4842000000 -28.891706 -12.328902 -2.5011463 3.5704968 -2.5041416 3.5765164 -29.937979 -149.70905
4843000000 -28.919127 -14.95643 -2.5018761 -0.10739076 -2.4975085 -0.16553988 -30.135267 -155.29164
4844000000 -29.268208 -17.364349 -2.5009079 -3.9003432 -2.4993377 -3.8735254 -30.325434 -160.82912
4845000000 -29.075888 -19.05813 -2.5017471 -7.5792193 -2.4996893 -7.5982046 -30.733416 -166.47272
4846000000 -29.134644 -22.071457 -2.5008922 -11.294453 -2.5013852 -11.315148 -30.864388 -172.0659
4847000000 -29.221653 -23.263149 -2.5050306 -15.014219 -2.4999995 -15.046472 -30.932203 -178.11475
4848000000 -29.352533 -25.630381 -2.5023887 -18.723577 -2.5009828 -18.771065 -31.155893 175.99004
4849000000 -29.397156 -27.158882 -2.502526 -22.445169 -2.5038199 -22.475143 -31.234581 169.62384
4850000000 -29.185076 -29.161486 -2.5043089 -26.15251 -2.5028043 -26.182999 -31.336201 163.37216
4851000000 -29.242662 -31.082802 -2.5048287 -29.889059 -2.5042942 -29.911865 -31.390362 156.3055
4852000000 -29.262476 -34.856274 -2.5049462 -33.588329 -2.5003285 -33.626286 -31.589846 150.75665
4853000000 -29.103327 -35.557659 -2.5038342 -37.354939 -2.4989865 -37.329159 -31.476271 143.48219
4854000000 -29.110884 -36.855732 -2.5102186 -41.049259 -2.5023096 -41.052532 -31.457586 136.63512
4855000000 -28.93651 -39.760857 -2.5092599 -44.75296 -2.5012319 -44.802322 -31.404741 131.52582
4856000000 -28.899685 -40.969742 -2.5113285 -48.504799 -2.4992414 -48.498875 -31.373423 123.54768
4857000000 -28.854797 -42.674736 -2.5057485 -52.206291 -2.5069761 -52.171696 -31.370186 116.51736
4858000000 -28.683882 -44.299889 -2.5058818 -55.942516 -2.5052812 -55.934063 -31.087049 110.24122
4859000000 -28.56315 -46.673038 -2.5079539 -59.640762 -2.5083351 -59.673996 -30.932415 104.09506
4860000000 -28.276283 -47.784527 -2.5102155 -63.36771 -2.5072258 -63.356728 -30.772593 98.052086
4861000000 -28.168236 -50.776951 -2.5166972 -67.072365 -2.5084836 -67.094414 -30.562716 91.022476
4862000000 -28.03631 -52.980591 -2.5049286 -70.788284 -2.5111325 -70.813179 -30.246803 83.604309
4863000000 -27.9396 -54.926014 -2.5131829 -74.51033 -2.5062556 -74.520309 -30.078939 78.100548
4864000000 -27.727915 -56.021519 -2.5092583 -78.259331 -2.5093679 -78.243423 -29.808083 71.434731
4865000000 -27.357845 -58.374916 -2.5160022 -81.957733 -2.5087605 -81.981255 -29.60405 66.249237
4866000000 -27.328245 -61.172924 -2.5092831 -85.661125 -2.5081089 -85.69709 -29.079439 59.471333
4867000000 -27.100723 -62.990047 -2.5144703 -89.354958 -2.5104716 -89.409416 -28.877724 53.868141
4868000000 -26.987877 -64.781052 -2.5087564 -93.103691 -2.5119102 -93.144859 -28.54266 47.411575
4869000000 -26.790276 -66.78463 -2.5117795 -96.828735 -2.5085626 -96.844826 -28.499765 42.124451
4870000000 -26.58082 -68.585144 -2.5152335 -100.55342 -2.5115926 -100.57014 -28.180227 35.961071
4871000000 -26.301771 -70.552589 -2.5123639 -104.25659 -2.518925 -104.2952 -27.897348 30.660894
4872000000 -26.209429 -72.808388 -2.5181646 -107.98782 -2.514379 -108.00154 -27.483862 25.335342
4873000000 -25.945784 -75.503754 -2.5177615 -111.67561 -2.5196824 -111.72968 -27.26359 19.877199
4874000000 -25.782225 -77.336319 -2.5234489 -115.41641 -2.5166185 -115.45831 -26.91741 14.730783
4875000000 -25.600037 -79.418808 -2.5220299 -119.0957 -2.5182066 -119.12691 -26.60895 10.099225
4876000000 -25.44318 -81.278061 -2.524271 -122.83993 -2.5177822 -122.88102 -26.368608 4.9676108
4877000000 -25.209372 -83.982979 -2.5239828 -126.53677 -2.5164101 -126.5866 -26.15299 -0.088446312
4878000000 -25.044109 -85.885796 -2.5271926 -130.28952 -2.5229526 -130.28442 -25.948549 -4.5490308
4879000000 -24.896505 -88.072052 -2.522388 -134.00108 -2.5258226 -134.01057 -25.618429 -9.265028
4880000000 -24.751799 -90.154823 -2.5231237 -137.69647 -2.5239058 -137.75786 -25.384237 -14.014242
4881000000 -24.603411 -92.381905 -2.5265667 -141.42685 -2.5243928 -141.43724 -25.116493 -18.645329
4882000000 -24.477474 -94.934219 -2.5275872 -145.14308 -2.5284953 -145.16196 -25.010698 -23.014179
4883000000 -24.395887 -96.774498 -2.5318382 -148.82341 -2.5273259 -148.84326 -24.792391 -27.783146
4884000000 -24.216516 -98.986794 -2.5331745 -152.59686 -2.5264828 -152.57817 -24.64522 -33.17178
4885000000 -24.054127 -100.94335 -2.5333748 -156.26965 -2.5290935 -156.30026 -24.453875 -37.042545
4886000000 -23.985069 -103.25659 -2.5290041 -159.99753 -2.5318267 -160.00732 -24.390425 -41.730663
4887000000 -23.809965 -105.40283 -2.5277123 -163.71208 -2.527822 -163.73352 -24.18667 -46.720123
4888000000 -23.765928 -107.6032 -2.5333567 -167.45276 -2.5344582 -167.42619 -24.023161 -51.275581
4889000000 -23.754339 -109.61589 -2.5372844 -171.10655 -2.5348623 -171.16266 -24.04435 -55.479103
4890000000 -23.566154 -111.89281 -2.5396044 -174.85553 -2.5309861 -174.84419 -23.917749 -60.267792
4891000000 -23.564329 -114.19618 -2.5348396 -178.5594 -2.5341821 -178.56464 -23.851629 -64.7789
4892000000 -23.433056 -116.2081 -2.5362997 177.75334 -2.5340052 177.694 -23.876381 -69.892166
4893000000 -23.465065 -118.13206 -2.5417373 174.02431 -2.5325942 174.02538 -23.832912 -74.467072
4894000000 -23.338333 -120.18469 -2.5391507 170.28488 -2.5384467 170.30017 -23.76619 -79.308113
4895000000 -23.247454 -122.40934 -2.5361121 166.61424 -2.5384452 166.57431 -23.732748 -84.528793
4896000000 -23.266317 -123.86319 -2.5409653 162.87489 -2.5399389 162.89511 -23.709602 -88.75
4897000000 -23.152716 -126.4488 -2.5406973 159.16077 -2.5362856 159.15579 -23.763021 -94.580154
4898000000 -23.153627 -128.17253 -2.5370581 155.4733 -2.5408077 155.44585 -23.725494 -99.521324
4899000000 -23.093678 -130.40134 -2.5476899 151.76048 -2.5343738 151.73248 -23.830032 -104.49826
4900000000 -23.109215 -132.25638 -2.5338922 148.03905 -2.5431695 148.02362 -23.820175 -110.10783
4901000000 -23.121605 -134.20695 -2.5437813 144.32137 -2.5377858 144.27444 -23.896688 -115.53243
4902000000 -23.117538 -135.6086 -2.5418437 140.5997 -2.5405035 140.58899 -23.881838 -121.09695
4903000000 -23.058132 -137.75781 -2.5450215 136.87616 -2.5419273 136.87457 -23.927584 -126.31319
4904000000 -23.06727 -139.38673 -2.5463274 133.20139 -2.5415909 133.16737 -24.008505 -131.38643
4905000000 -23.018038 -141.41541 -2.5442855 129.45293 -2.5404189 129.44777 -23.995819 -137.35155
4906000000 -22.994303 -142.89076 -2.5411112 125.75563 -2.5458665 125.76028 -24.061781 -143.0584
4907000000 -22.922585 -144.26524 -2.5461264 122.04905 -2.5426347 122.02018 -24.022516 -148.91257
4908000000 -23.020693 -146.1881 -2.5496452 118.35602 -2.5392826 118.31257 -24.107914 -154.36148
4909000000 -22.970444 -147.67796 -2.5452566 114.63067 -2.5438399 114.57734 -24.175318 -160.65388
4910000000 -22.931438 -149.66737 -2.5481493 110.9031 -2.5410142 110.91801 -24.161148 -166.39313
4911000000 -22.909061 -150.71428 -2.550065 107.15707 -2.5409245 107.14157 -24.153751 -172.62881
4912000000 -22.907852 -152.69301 -2.5486753 103.47287 -2.5410945 103.44765 -24.192196 -178.49051
4913000000 -22.852858 -154.0865 -2.5432763 99.776932 -2.5447104 99.731934 -24.180758 175.09486
4914000000 -22.821493 -155.45863 -2.548296 96.032166 -2.5431559 96.011177 -24.226572 169.59198
4915000000 -22.84409 -157.3028 -2.549706 92.311371 -2.5487065 92.344322 -24.242208 163.69647
4916000000 -22.739517 -158.66199 -2.5499008 88.627312 -2.5462162 88.617966 -24.283264 157.00209
4917000000 -22.754444 -160.15247 -2.5496171 84.92643 -2.5450859 84.886345 -24.27697 151.23439
4918000000 -22.665907 -161.93967 -2.5533237 81.189919 -2.5461442 81.18132 -24.261517 145.28513
4919000000 -22.745527 -162.93115 -2.5504601 77.442482 -2.549118 77.435272 -24.273958 139.39221
4920000000 -22.716814 -165.19003 -2.5498071 73.76815 -2.5474148 73.762169 -24.264851 133.15709
4921000000 -22.654274 -166.40378 -2.5515978 70.043861 -2.5464587 70.05468 -24.222239 126.73245
4922000000 -22.585371 -167.66165 -2.5439911 66.343369 -2.5474586 66.327934 -24.263952 120.1522
4923000000 -22.577089 -169.55353 -2.5538707 62.647652 -2.5492177 62.597416 -24.22463 114.58957
4924000000 -22.521814 -170.53003 -2.5470426 58.87936 -2.5524764 58.901051 -24.198 108.2003
4925000000 -22.475649 -172.73061 -2.5517008 55.201569 -2.5500739 55.185284 -24.193504 102.22096
4926000000 -22.496202 -173.91713 -2.5559788 51.485142 -2.5536499 51.461891 -24.054239 95.991264
4927000000 -22.410534 -175.92439 -2.551671 47.765144 -2.553416 47.766331 -24.009903 89.466316
4928000000 -22.352533 -177.2135 -2.5515103 44.038055 -2.553525 44.069962 -24.054752 83.610146
4929000000 -22.350414 -178.86134 -2.5503502 40.353683 -2.5507739 40.317879 -23.994656 77.167198
4930000000 -22.367363 179.45436 -2.5573132 36.600613 -2.5522506 36.611092 -24.004648 71.273468
4931000000 -22.324116 178.1631 -2.5572245 32.925095 -2.5565553 32.921524 -23.815823 65.506081
4932000000 -22.29269 176.20163 -2.5595322 29.225113 -2.552901 29.188131 -23.790037 59.12545
4933000000 -22.21628 174.30452 -2.5588756 25.509277 -2.5569203 25.481583 -23.600105 53.452988
4934000000 -22.284609 172.99443 -2.5557456 21.806145 -2.5563183 21.793118 -23.54999 47.610348
4935000000 -22.194933 171.00015 -2.5598252 18.067749 -2.5542865 18.073391 -23.448383 41.639915
4936000000 -22.251854 169.02641 -2.5596921 14.385104 -2.5524831 14.336227 -23.353458 36.356445
4937000000 -22.198702 167.49272 -2.5606444 10.642176 -2.5527091 10.631724 -23.341896 30.281853
4938000000 -22.247763 165.32797 -2.5625753 6.941618 -2.5593991 6.9366302 -23.166712 24.942453
4939000000 -22.196655 163.68843 -2.5603852 3.2549551 -2.5588448 3.2234132 -23.171223 19.421061
4940000000 -22.208584 161.57339 -2.5606489 -0.48324528 -2.5605972 -0.49905547 -23.03915 14.541876
4941000000 -22.226992 159.74472 -2.5645251 -4.1981244 -2.5583456 -4.1664157 -22.95804 8.8957939
4942000000 -22.289017 157.7748 -2.5619259 -7.8491278 -2.5541375 -7.9398766 -22.934456 3.7088201
4943000000 -22.222855 156.27246 -2.5562689 -11.608435 -2.5637763 -11.658164 -22.862535 -1.1798344
4944000000 -22.262144 153.8358 -2.5630496 -15.3185 -2.5562797 -15.338218 -22.820852 -6.4478698
4945000000 -22.289003 151.86595 -2.5637202 -19.030872 -2.5597599 -19.011208 -22.800919 -11.375648
4946000000 -22.343433 149.3775 -2.559247 -22.731415 -2.5609598 -22.763466 -22.830395 -16.595251
4947000000 -22.320009 147.67001 -2.5616364 -26.445534 -2.5580697 -26.452477 -22.8335 -21.511894
4948000000 -22.468292 146.16801 -2.5615444 -30.145754 -2.5612702 -30.186052 -22.77582 -26.474058
4949000000 -22.469954 143.70161 -2.5589325 -33.844639 -2.5552502 -33.89817 -22.82505 -31.237871
4950000000 -22.586399 141.78017 -2.5596907 -37.566227 -2.5597346 -37.590813 -22.893143 -36.058907
4951000000 -22.572397 139.71674 -2.5609949 -41.285374 -2.5597117 -41.307587 -22.914698 -41.071346
4952000000 -22.672119 137.48383 -2.5632558 -45.017605 -2.5599539 -45.005058 -23.000971 -45.626736
4953000000 -22.687185 135.52957 -2.55849 -48.70966 -2.5587995 -48.732204 -23.036541 -50.884041
4954000000 -22.808714 133.55559 -2.5566714 -52.396339 -2.5554497 -52.437122 -23.125937 -56.128033
4955000000 -22.921085 131.39125 -2.5595956 -56.125614 -2.5585432 -56.134338 -23.248751 -60.262772
4956000000 -23.045586 129.45857 -2.5592036 -59.821011 -2.5590901 -59.849834 -23.322598 -65.790009
4957000000 -23.061567 127.05913 -2.561939 -63.552666 -2.5553572 -63.588268 -23.498806 -70.709427
4958000000 -23.231018 124.77838 -2.5599017 -67.262527 -2.560936 -67.262794 -23.628382 -75.673866
4959000000 -23.320742 123.15136 -2.5592325 -70.988373 -2.5499096 -71.005478 -23.831295 -80.491402
4960000000 -23.429464 121.37197 -2.5589545 -74.654167 -2.5581734 -74.712067 -23.961443 -85.271599
4961000000 -23.570765 119.24944 -2.5582125 -78.403336 -2.5560865 -78.421959 -24.071255 -90.418488
4962000000 -23.755302 117.46207 -2.5539551 -82.112511 -2.5560679 -82.139023 -24.307215 -96.165787
4963000000 -23.784729 115.55101 -2.5546753 -85.815269 -2.5530255 -85.879417 -24.40798 -100.91222
4964000000 -23.982313 113.45613 -2.5530412 -89.549271 -2.5512607 -89.56041 -24.619396 -106.38303
4965000000 -24.125927 111.57216 -2.5557153 -93.249374 -2.5536196 -93.269844 -24.807604 -111.68155
4966000000 -24.267393 110.02689 -2.5550604 -96.978096 -2.5510204 -97.009109 -25.004276 -117.10226
4967000000 -24.387411 108.15212 -2.5462782 -100.6541 -2.5499394 -100.69846 -25.15011 -122.88778
4968000000 -24.501909 106.58714 -2.5523219 -104.39682 -2.5469892 -104.43355 -25.419592 -127.51351
4969000000 -24.69338 104.39796 -2.5540917 -108.12064 -2.5517561 -108.16447 -25.687128 -133.29042
4970000000 -24.888998 102.54706 -2.5510161 -111.85436 -2.5465121 -111.83287 -25.824385 -139.07104
4971000000 -25.03595 101.08694 -2.5498631 -115.57015 -2.5465083 -115.56141 -26.075581 -144.79309
4972000000 -25.1938 99.43261 -2.5508535 -119.27676 -2.5486367 -119.28833 -26.30238 -150.45541
4973000000 -25.222208 97.872566 -2.547837 -122.98973 -2.5496941 -122.98909 -26.516468 -155.39679
4974000000 -25.470266 96.231079 -2.5486064 -126.68927 -2.5417016 -126.75728 -26.731421 -161.41682
4975000000 -25.630117 94.279808 -2.5498891 -130.42517 -2.5468457 -130.45848 -26.865303 -167.18805
4976000000 -25.860664 93.241936 -2.5477324 -134.17064 -2.5457947 -134.15955 -27.134741 -173.02257
4977000000 -25.852589 90.972946 -2.550703 -137.84218 -2.5494983 -137.84148 -27.33667 -178.40747
4978000000 -25.976225 89.165276 -2.5485566 -141.59721 -2.5537872 -141.59033 -27.454386 175.20706
4979000000 -26.155495 87.69059 -2.5499892 -145.26746 -2.5458989 -145.2939 -27.732008 169.14157
4980000000 -26.359024 86.120491 -2.5488365 -149.02066 -2.5489802 -149.0253 -27.963394 163.99583
4981000000 -26.465508 84.180885 -2.5493057 -152.74635 -2.5449455 -152.74352 -28.159218 157.64571
4982000000 -26.592648 82.600693 -2.5484662 -156.44824 -2.549202 -156.48106 -28.232574 151.69167
4983000000 -26.847502 80.589989 -2.5477378 -160.13231 -2.5453711 -160.18376 -28.615318 145.66293
4984000000 -26.87557 78.929558 -2.5482712 -163.89278 -2.5454128 -163.88873 -28.669142 139.77983
4985000000 -27.007309 76.822945 -2.5458822 -167.61179 -2.5450983 -167.62535 -28.826435 133.3573
4986000000 -27.179718 75.125809 -2.5438678 -171.31879 -2.5481224 -171.30519 -29.10593 126.72858
4987000000 -27.160379 73.078262 -2.5474939 -175.02805 -2.5406568 -175.07561 -29.147682 120.70761
4988000000 -27.332903 71.271408 -2.5511465 -178.75389 -2.5410368 -178.78749 -29.291157 114.43409
4989000000 -27.402037 68.7267 -2.5454566 177.56541 -2.5467947 177.51921 -29.367573 107.88081
4990000000 -27.509178 66.768112 -2.5477509 173.82863 -2.5426526 173.79614 -29.452364 101.67104
4991000000 -27.584084 65.102707 -2.5485022 170.11229 -2.5426884 170.06914 -29.630981 94.785675
4992000000 -27.630154 62.772301 -2.545289 166.38924 -2.5404825 166.35191 -29.551975 89.101997
4993000000 -27.822599 60.475071 -2.5482359 162.65179 -2.5491595 162.65334 -29.582426 83.063507
4994000000 -27.846909 57.964783 -2.5499938 158.95836 -2.5436301 158.95284 -29.605705 76.254395
4995000000 -27.889761 55.716873 -2.5479496 155.20891 -2.5426047 155.20522 -29.424896 69.795959
4996000000 -27.941254 53.260799 -2.5507283 151.50214 -2.5499849 151.50797 -29.455935 64.997948
4997000000 -27.920507 50.247135 -2.5506639 147.81316 -2.5463154 147.76265 -29.377373 58.677536
4998000000 -27.968351 47.754192 -2.5465658 144.07745 -2.5475211 144.03914 -29.26499 52.496346
4999000000 -28.02247 45.063805 -2.5453236 140.32559 -2.5458114 140.35612 -29.220871 47.864052
5000000000 -27.940725 42.647827 -2.55112 136.63611 -2.54632 136.60114 -28.93718 43.074574
