!Keysight Technologies,P5024B,MY61400434,A.20.20.03
!Date: Monday, July 13, 2026 10:08:23
!Correction: S11(C  2-Port  ) 
!S21(C  2-Port  ) 
!S12(C  2-Port  ) 
!S22(C  2-Port  ) 
!S2P File: Measurements: S11, S21, S12, S22:
# Hz S  dB   R 50
2000000000 -18.345488 -172.44093 -66.004227 -138.58295 -17.851627 -104.17789 -3.5918469 109.87537
2001000000 -18.345119 -179.51736 -66.282043 -146.19585 -17.891304 -111.16799 -3.5911582 102.25728
2002000000 -18.301861 173.26726 -66.389847 -153.03654 -17.935297 -118.25459 -3.5975139 94.553169
2003000000 -18.292828 166.32501 -66.41188 -163.08151 -17.974627 -125.27507 -3.590605 86.888992
2004000000 -18.291258 159.13734 -66.410469 -166.2003 -18.007793 -132.34113 -3.5840032 79.204231
2005000000 -18.243685 152.17813 -66.448021 -175.53552 -18.046593 -139.39578 -3.582026 71.560097
2006000000 -18.212145 145.1765 -66.808983 179.032 -18.100491 -146.45819 -3.5760901 63.85968
2007000000 -18.173426 138.25122 -66.326881 171.39693 -18.129848 -153.5715 -3.5633135 56.162235
2008000000 -18.146641 131.29713 -66.399467 163.37445 -18.17124 -160.59209 -3.5590472 48.506172
2009000000 -18.098379 124.38058 -66.728996 155.95073 -18.229643 -167.60812 -3.5537052 40.850853
2010000000 -18.04776 117.63338 -66.380165 149.84111 -18.271132 -174.77783 -3.5423553 33.134682
2011000000 -18.000917 110.87926 -66.645729 140.22636 -18.318497 178.21031 -3.5409966 25.512106
2012000000 -17.953266 104.20551 -66.550377 137.12727 -18.364979 171.12897 -3.5345097 17.801403
2013000000 -17.919979 97.59024 -66.730621 130.04482 -18.411339 164.04781 -3.5287218 10.1722
2014000000 -17.891973 90.961952 -66.46489 119.63361 -18.46413 157.12366 -3.523653 2.4989772
2015000000 -17.853758 84.399193 -66.912079 114.09297 -18.513107 149.91402 -3.5137146 -5.1566014
2016000000 -17.800772 77.737999 -66.579399 108.19171 -18.570143 142.81514 -3.5111783 -12.878114
2017000000 -17.803661 71.245811 -66.796242 100.13088 -18.635431 135.86501 -3.5111024 -20.550819
2018000000 -17.756344 64.85714 -66.871887 95.789398 -18.68 128.77071 -3.5061073 -28.196787
2019000000 -17.738218 58.405849 -66.705109 87.065163 -18.745787 121.64129 -3.5063503 -35.875126
2020000000 -17.742937 51.987637 -67.312309 78.893044 -18.821194 114.66986 -3.5090761 -43.598175
2021000000 -17.709223 45.463497 -67.285606 72.241776 -18.865252 107.58839 -3.5046999 -51.243977
2022000000 -17.724741 39.086697 -67.241943 65.096001 -18.932949 100.51529 -3.5064719 -58.936459
2023000000 -17.728996 32.800705 -67.392143 58.416859 -19.003386 93.612274 -3.5085413 -66.59079
2024000000 -17.745222 26.354107 -67.174278 50.681065 -19.079512 86.440201 -3.518368 -74.327187
2025000000 -17.764442 19.88969 -67.296776 42.939705 -19.145338 79.455971 -3.5093899 -82.026016
2026000000 -17.778608 13.666145 -67.388725 35.976688 -19.216965 72.447731 -3.5242016 -89.699112
2027000000 -17.819384 7.267024 -67.563446 28.272104 -19.317116 65.440239 -3.5310571 -97.388573
2028000000 -17.847607 0.75653023 -67.515419 22.469118 -19.381691 58.448513 -3.5386438 -105.06792
2029000000 -17.915751 -5.6328392 -67.307144 15.188795 -19.465042 51.355152 -3.5443461 -112.78159
2030000000 -17.952351 -12.079097 -67.764648 9.7118492 -19.558443 44.367912 -3.5461612 -120.43935
2031000000 -18.014166 -18.510132 -67.867661 1.4791368 -19.637398 37.47607 -3.5626273 -128.13258
2032000000 -18.078142 -25.050615 -67.661217 -3.3363113 -19.72118 30.512022 -3.5649233 -135.80133
2033000000 -18.133547 -31.65793 -68.134621 -12.242433 -19.826508 23.486805 -3.5773878 -143.5051
2034000000 -18.209496 -38.244911 -68.181381 -17.925453 -19.936632 16.630198 -3.5825861 -151.15845
2035000000 -18.287024 -44.854698 -68.073654 -27.582218 -20.014591 9.70298 -3.5847635 -158.77309
2036000000 -18.378658 -51.628143 -68.371483 -34.660961 -20.115061 2.8367987 -3.5901728 -166.40189
2037000000 -18.459356 -58.33625 -68.469162 -41.766155 -20.217165 -4.02953 -3.5923827 -174.0179
2038000000 -18.550821 -65.016579 -68.330925 -46.821968 -20.329712 -10.958776 -3.6001468 178.37146
2039000000 -18.638004 -71.917099 -68.326073 -57.019669 -20.439671 -17.811657 -3.5990438 170.82158
2040000000 -18.725754 -78.897415 -68.515472 -61.502296 -20.550583 -24.606043 -3.6024737 163.27759
2041000000 -18.796675 -85.955902 -68.605064 -65.080223 -20.6616 -31.305742 -3.5954263 155.74867
2042000000 -18.893995 -92.901054 -68.781921 -75.179848 -20.767941 -38.124203 -3.5965595 148.2343
2043000000 -19.002426 -100.07367 -69.3134 -83.935707 -20.876541 -44.924309 -3.5901432 140.75853
2044000000 -19.066732 -107.06141 -69.331665 -87.964699 -20.999083 -51.642101 -3.5890841 133.30869
2045000000 -19.140778 -114.43164 -68.983963 -96.472679 -21.10947 -58.326962 -3.5789263 125.89587
2046000000 -19.206284 -121.42303 -68.825661 -98.857635 -21.233885 -65.099327 -3.5761516 118.43488
2047000000 -19.266788 -128.7726 -69.556213 -109.219 -21.347904 -71.746582 -3.5671053 111.08031
2048000000 -19.323185 -136.1512 -69.37809 -114.20145 -21.467844 -78.431244 -3.5636823 103.66051
2049000000 -19.36937 -143.42578 -69.760139 -121.88754 -21.581758 -85.013947 -3.556355 96.389236
2050000000 -19.406454 -150.83298 -69.363884 -129.41261 -21.70134 -91.579575 -3.5453329 89.09314
2051000000 -19.430592 -158.24832 -69.882629 -137.13193 -21.820719 -98.187149 -3.5421977 81.714066
2052000000 -19.439838 -165.60487 -69.302414 -139.43248 -21.948479 -104.78109 -3.5311015 74.445625
2053000000 -19.473383 -172.98434 -69.982132 -146.53915 -22.064072 -111.27355 -3.5237758 67.232376
2054000000 -19.469347 179.60886 -69.5839 -154.88112 -22.190535 -117.77557 -3.5149047 59.928574
2055000000 -19.443159 172.2899 -69.898048 -160.76833 -22.304739 -124.24828 -3.5064108 52.69014
2056000000 -19.411867 164.87967 -70.108177 -167.83412 -22.430267 -130.80696 -3.4984131 45.435688
2057000000 -19.388969 157.62686 -70.609566 -174.18214 -22.546978 -137.17848 -3.4930236 38.186775
2058000000 -19.363623 150.35808 -70.064339 179.65651 -22.678244 -143.66583 -3.4903398 30.897614
2059000000 -19.29529 143.15233 -70.836075 171.08499 -22.803782 -150.0107 -3.4885962 23.632914
2060000000 -19.267776 135.94109 -70.677292 166.00366 -22.928392 -156.39555 -3.4857535 16.370298
2061000000 -19.191015 128.8208 -71.032326 158.31844 -23.055527 -162.76447 -3.4908261 9.0884733
2062000000 -19.156092 121.72642 -70.774185 150.43407 -23.174635 -169.0601 -3.4935534 1.7595907
2063000000 -19.082483 114.83208 -71.478813 148.45528 -23.305325 -175.41946 -3.4919283 -5.5416522
2064000000 -19.04384 107.92105 -70.994209 139.68422 -23.441181 178.23145 -3.4984949 -12.90348
2065000000 -18.993128 101.09128 -71.251762 134.93895 -23.573957 171.96361 -3.5054801 -20.310747
2066000000 -18.899073 94.204521 -71.048882 128.09367 -23.699179 165.76801 -3.5104685 -27.725298
2067000000 -18.858103 87.599052 -71.612869 119.02087 -23.830391 159.53697 -3.5254655 -35.191059
2068000000 -18.796677 80.851257 -72.012169 114.77927 -23.963207 153.3391 -3.5370688 -42.633053
2069000000 -18.732231 74.188644 -71.852371 107.45323 -24.105902 147.16293 -3.5530581 -50.127003
2070000000 -18.696648 67.521523 -71.773636 100.94781 -24.238415 140.99286 -3.5648892 -57.721901
2071000000 -18.658251 61.1068 -72.226006 94.463638 -24.378939 134.85306 -3.5812454 -65.325523
2072000000 -18.625259 54.456318 -72.749352 93.443268 -24.517965 128.87694 -3.601305 -72.964706
2073000000 -18.57543 48.089066 -72.409569 80.899536 -24.663189 122.88728 -3.6174405 -80.63089
2074000000 -18.552362 41.493607 -72.768326 77.865555 -24.804283 116.9462 -3.6371324 -88.317795
2075000000 -18.525827 35.027073 -73.639015 72.600906 -24.942585 110.94651 -3.6439545 -96.153511
2076000000 -18.527224 28.66922 -73.288483 66.302406 -25.089649 105.1695 -3.6644619 -103.89577
2077000000 -18.521305 22.194696 -73.784073 59.911587 -25.245861 99.336525 -3.6901214 -111.73032
2078000000 -18.528053 15.801052 -73.13765 52.203339 -25.393076 93.603088 -3.7099354 -119.60638
2079000000 -18.525955 9.3742609 -73.074699 48.395847 -25.535524 87.957237 -3.7267947 -127.50822
2080000000 -18.572338 2.8856704 -73.78096 40.011826 -25.682852 82.288956 -3.741545 -135.39888
2081000000 -18.585258 -3.5141771 -74.140373 40.869873 -25.829378 76.773209 -3.7539122 -143.35066
2082000000 -18.625921 -9.9004707 -73.977348 37.028889 -25.966808 71.29734 -3.7740762 -151.27231
2083000000 -18.663473 -16.448004 -74.522125 26.417187 -26.104776 65.940445 -3.7794642 -159.22073
2084000000 -18.707867 -22.928299 -74.393936 19.049482 -26.230095 60.624847 -3.7861905 -167.16956
2085000000 -18.753576 -29.598824 -74.443199 18.459202 -26.358583 55.515011 -3.7957718 -175.12566
2086000000 -18.832968 -36.131927 -74.628693 -0.33615854 -26.483501 50.312454 -3.7948761 176.9445
2087000000 -18.896643 -42.772781 -73.941154 -0.88188326 -26.601042 45.285625 -3.8001361 169.0011
2088000000 -18.96026 -49.38155 -75.048149 -0.19653033 -26.69091 40.310925 -3.8012671 161.11407
2089000000 -19.037754 -56.24601 -74.981537 -7.961925 -26.794804 35.440952 -3.7998493 153.21921
2090000000 -19.095842 -62.991776 -75.604866 -12.474227 -26.857424 30.600681 -3.7900317 145.35399
2091000000 -19.197941 -69.857536 -74.659775 -19.872581 -26.927328 25.861063 -3.7858646 137.54085
2092000000 -19.262983 -76.725632 -75.74614 -24.758532 -26.971878 21.177374 -3.7736981 129.70615
2093000000 -19.346539 -83.59288 -76.488831 -30.390173 -27.008112 16.520166 -3.7669699 121.96721
2094000000 -19.424242 -90.770195 -76.04879 -36.555546 -27.02705 11.929317 -3.751565 114.2799
2095000000 -19.47777 -97.861076 -75.887527 -35.113468 -27.017509 7.4314022 -3.7327631 106.5901
2096000000 -19.551775 -104.98093 -75.841988 -38.635056 -27.000341 2.842643 -3.7132845 98.933868
2097000000 -19.618483 -112.08128 -76.361404 -40.246334 -26.951939 -1.5775497 -3.6956635 91.406799
2098000000 -19.66531 -119.44329 -76.37915 -45.4856 -26.900274 -6.2251806 -3.6856349 83.857513
2099000000 -19.710253 -126.68243 -76.228409 -51.580105 -26.814499 -10.803827 -3.6651711 76.347466
2100000000 -19.772667 -133.95474 -76.598289 -51.423809 -26.726156 -15.411931 -3.6468318 68.936798
2101000000 -19.797504 -141.26866 -75.577492 -64.81768 -26.609877 -20.016256 -3.6278818 61.494358
2102000000 -19.794855 -148.55196 -75.163849 -61.21714 -26.483158 -24.672386 -3.6142929 54.176815
2103000000 -19.810173 -156.02835 -76.139984 -67.510902 -26.333052 -29.35955 -3.5979044 46.817142
2104000000 -19.827513 -163.28381 -76.114746 -73.632164 -26.172436 -34.100346 -3.5806415 39.511379
2105000000 -19.822338 -170.67215 -75.105515 -80.755104 -25.997766 -39.016659 -3.5645859 32.218006
2106000000 -19.818825 -178.05922 -75.902695 -91.292145 -25.814869 -43.937176 -3.5554328 24.977957
2107000000 -19.786413 174.71262 -75.486633 -88.044785 -25.620764 -48.870804 -3.5495937 17.75721
2108000000 -19.775812 167.48888 -75.711861 -95.934593 -25.409727 -53.937519 -3.5350211 10.529154
2109000000 -19.717371 160.31483 -74.984734 -98.230644 -25.186613 -59.07283 -3.5284197 3.2790608
2110000000 -19.662821 152.95985 -74.300858 -102.41802 -24.958979 -64.335732 -3.5232427 -3.8834386
2111000000 -19.632259 145.91434 -74.766129 -105.41151 -24.732353 -69.643478 -3.5181234 -11.086013
2112000000 -19.581327 138.90533 -73.40213 -112.2434 -24.501907 -74.985817 -3.5233674 -18.288099
2113000000 -19.515055 131.87794 -73.721954 -114.31265 -24.25346 -80.546013 -3.5226905 -25.535011
2114000000 -19.473614 124.79619 -73.515793 -122.24813 -24.013351 -86.029663 -3.5220356 -32.73616
2115000000 -19.399233 117.96468 -72.830093 -127.1395 -23.773338 -91.560852 -3.5365345 -39.940704
2116000000 -19.332447 111.10714 -73.376053 -132.96597 -23.521492 -97.304733 -3.5448472 -47.213627
2117000000 -19.292595 104.34648 -72.638458 -136.73149 -23.263042 -103.06194 -3.5566089 -54.490849
2118000000 -19.223375 97.605698 -72.317886 -143.94078 -23.009169 -108.94128 -3.5667446 -61.802856
2119000000 -19.16889 90.955605 -71.652763 -150.74287 -22.760637 -114.74195 -3.5795474 -69.074226
2120000000 -19.113239 84.273582 -71.776108 -156.35835 -22.506872 -120.76379 -3.5995929 -76.481339
2121000000 -19.07662 77.71875 -71.659149 -161.1819 -22.242426 -126.78517 -3.6103506 -83.861366
2122000000 -19.023073 71.05632 -71.191971 -164.12172 -22.001955 -132.81377 -3.6395562 -91.276749
2123000000 -18.99058 64.656952 -71.055672 -168.96735 -21.743925 -138.99532 -3.6526318 -98.761986
2124000000 -18.976433 58.184292 -70.914474 -178.02473 -21.491516 -145.18837 -3.6789606 -106.25198
2125000000 -18.939449 51.738293 -70.839096 177.17502 -21.250467 -151.47142 -3.6972923 -113.78119
2126000000 -18.929771 45.428741 -70.300514 168.30672 -20.995871 -157.76176 -3.7222469 -121.30845
2127000000 -18.915527 38.944805 -70.157104 159.99228 -20.751617 -164.09645 -3.743315 -128.96014
2128000000 -18.907852 32.477459 -70.148964 158.35812 -20.518578 -170.54811 -3.7710338 -136.63588
2129000000 -18.931694 26.134964 -69.503365 152.32036 -20.274555 -176.98422 -3.790626 -144.28493
2130000000 -18.941324 19.774162 -69.406448 144.3703 -20.034956 176.49689 -3.8086078 -151.99889
2131000000 -18.968142 13.398089 -68.771683 136.80861 -19.796524 169.99643 -3.8267879 -159.72328
2132000000 -18.990633 6.9868984 -69.136971 130.99763 -19.564558 163.41083 -3.8453436 -167.50934
2133000000 -19.028107 0.51590592 -68.58477 126.28977 -19.3445 156.83168 -3.8626406 -175.27208
2134000000 -19.073044 -5.8610983 -68.706406 119.5363 -19.117151 150.14871 -3.8754652 176.90163
2135000000 -19.141638 -12.209427 -67.976212 111.7937 -18.901972 143.54713 -3.8895483 169.06322
2136000000 -19.179972 -18.850742 -68.064774 105.4882 -18.684019 136.80437 -3.8987274 161.21825
2137000000 -19.26251 -25.464254 -67.338303 97.614807 -18.47621 130.0623 -3.9097273 153.37076
2138000000 -19.335611 -31.851475 -67.194313 93.324677 -18.262186 123.354 -3.9153218 145.50082
2139000000 -19.425596 -38.546776 -67.069664 84.786545 -18.06583 116.61216 -3.9194477 137.65364
2140000000 -19.509836 -45.286011 -66.913414 80.536499 -17.856956 109.83729 -3.9180732 129.79698
2141000000 -19.606092 -51.904461 -66.761543 71.739433 -17.66321 102.98577 -3.9232938 121.93085
2142000000 -19.686457 -58.732845 -66.509514 67.851288 -17.467222 96.184166 -3.9178066 114.07419
2143000000 -19.764309 -65.6362 -66.204498 59.749695 -17.264818 89.308853 -3.9126258 106.25464
2144000000 -19.905279 -72.505646 -66.103378 51.644836 -17.077099 82.456268 -3.9038358 98.456772
2145000000 -19.987892 -79.574524 -66.017578 44.51664 -16.898798 75.530197 -3.8955345 90.662399
2146000000 -20.111917 -86.650314 -65.76593 37.94529 -16.716125 68.642303 -3.8871617 82.861099
2147000000 -20.209211 -93.748695 -65.412659 31.49412 -16.535072 61.784374 -3.8695548 75.119659
2148000000 -20.289175 -100.99089 -65.24971 26.880756 -16.355459 54.913223 -3.8610158 67.388199
2149000000 -20.37957 -108.27946 -65.302101 17.975565 -16.173685 48.047665 -3.8383293 59.718502
2150000000 -20.467472 -115.63548 -64.811821 10.516213 -16.01511 41.118576 -3.8374157 52.063465
2151000000 -20.526979 -123.07398 -64.928452 4.780417 -15.852386 34.288033 -3.8222642 44.373173
2152000000 -20.579382 -130.61816 -64.422523 -1.1796081 -15.680161 27.318201 -3.7997701 36.760349
2153000000 -20.662535 -138.02786 -64.313759 -8.3497438 -15.505383 20.351879 -3.792675 29.139503
2154000000 -20.696516 -145.84373 -64.219086 -15.259616 -15.356578 13.42825 -3.7836251 21.539625
2155000000 -20.72341 -153.32906 -63.973045 -22.805983 -15.186362 6.5201473 -3.7671518 13.982457
2156000000 -20.744049 -160.72691 -63.74567 -30.099567 -15.028306 -0.41709465 -3.7516921 6.4547224
2157000000 -20.729708 -168.42334 -63.713135 -35.819641 -14.870749 -7.4134746 -3.7440882 -1.1033523
2158000000 -20.745213 -175.84659 -63.477627 -43.166862 -14.715158 -14.329935 -3.7360067 -8.5918379
2159000000 -20.713808 176.60379 -63.205147 -50.248112 -14.557964 -21.257215 -3.7281921 -16.091181
2160000000 -20.680649 169.07376 -63.109512 -57.204582 -14.403444 -28.266127 -3.7194293 -23.540638
2161000000 -20.639101 161.74004 -62.896988 -64.906975 -14.250278 -35.169193 -3.7152874 -31.046988
2162000000 -20.614008 154.27245 -62.744312 -71.442337 -14.104985 -42.134953 -3.7183349 -38.508404
2163000000 -20.547188 146.90935 -62.626358 -77.653313 -13.951439 -49.142452 -3.7140133 -45.96283
2164000000 -20.480906 139.77747 -62.339703 -85.240074 -13.80162 -56.082867 -3.7195091 -53.417801
2165000000 -20.387678 132.58868 -62.334366 -91.213158 -13.645144 -63.054825 -3.7231531 -60.8923
2166000000 -20.338364 125.35964 -62.230198 -97.651108 -13.500266 -70.024498 -3.7297249 -68.337616
2167000000 -20.256477 118.33393 -61.918846 -105.92887 -13.360856 -77.010834 -3.7417021 -75.778076
2168000000 -20.192919 111.35522 -62.051006 -111.67352 -13.207833 -84.016197 -3.7496104 -83.310699
2169000000 -20.136286 104.45384 -61.734653 -119.62807 -13.062881 -90.973175 -3.7585113 -90.771751
2170000000 -20.058006 97.587662 -61.533054 -126.46425 -12.925356 -97.963577 -3.7712514 -98.224861
2171000000 -19.998253 90.800766 -61.502922 -133.13756 -12.787873 -105.01173 -3.7809379 -105.75129
2172000000 -19.935722 84.116867 -61.280952 -141.73558 -12.629902 -112.01343 -3.7906761 -113.24648
2173000000 -19.885122 77.678764 -61.178848 -146.84885 -12.491223 -119.04651 -3.8082798 -120.77132
2174000000 -19.828276 70.898178 -60.858204 -154.98897 -12.354283 -126.04521 -3.8262601 -128.2646
2175000000 -19.805212 64.184654 -60.761009 -161.32562 -12.215452 -133.09543 -3.8387783 -135.81642
2176000000 -19.751165 57.675369 -60.632839 -168.67456 -12.072494 -140.09412 -3.8508139 -143.36583
2177000000 -19.720598 51.131767 -60.507626 -175.78049 -11.93889 -147.11952 -3.8637009 -150.88179
2178000000 -19.715443 44.66552 -60.477432 176.7175 -11.794195 -154.15448 -3.8800113 -158.45604
2179000000 -19.702164 38.091351 -60.192963 171.18159 -11.663927 -161.16005 -3.8904448 -166.02364
2180000000 -19.705738 31.766903 -60.113651 163.74739 -11.52735 -168.20917 -3.9079335 -173.60507
2181000000 -19.732975 25.137918 -60.002052 156.34247 -11.392538 -175.34016 -3.9130642 178.77428
2182000000 -19.760895 18.717197 -59.797909 149.26131 -11.259027 177.66891 -3.9224982 171.22023
2183000000 -19.773893 12.193043 -59.665539 142.27229 -11.126954 170.63367 -3.9360209 163.63081
2184000000 -19.824598 5.7090178 -59.686928 135.90411 -10.992724 163.60027 -3.9392786 156.06007
2185000000 -19.850733 -0.88188398 -59.478081 127.9586 -10.86358 156.51826 -3.9464986 148.49355
2186000000 -19.894974 -7.4119525 -59.320438 120.38564 -10.725976 149.42859 -3.9532065 140.89346
2187000000 -19.976131 -14.112804 -59.083961 114.24146 -10.592135 142.40591 -3.9544389 133.31981
2188000000 -20.040352 -20.734545 -59.033863 107.44595 -10.465039 135.27747 -3.9552729 125.74798
2189000000 -20.112629 -27.440512 -58.881634 99.84137 -10.332047 128.21696 -3.956048 118.16837
2190000000 -20.206017 -34.35083 -58.753349 92.462379 -10.205099 121.13398 -3.9552765 110.61083
2191000000 -20.284159 -41.024345 -58.625431 86.213753 -10.073566 114.10366 -3.9531763 103.06181
2192000000 -20.374367 -47.9314 -58.355095 79.578651 -9.9428082 107.02877 -3.9526997 95.493233
2193000000 -20.473408 -54.955055 -58.274811 71.676674 -9.8133297 99.887833 -3.9469776 87.938492
2194000000 -20.563742 -61.929115 -58.24242 64.09304 -9.6845074 92.794418 -3.9477806 80.444893
2195000000 -20.657187 -69.131851 -58.048218 58.022156 -9.5534859 85.67955 -3.9418397 72.841431
2196000000 -20.740316 -76.35717 -57.902016 50.429131 -9.4329386 78.554565 -3.9417195 65.311241
2197000000 -20.836792 -83.781662 -57.629887 43.258022 -9.303628 71.491768 -3.9383848 57.805099
2198000000 -20.953596 -90.948982 -57.685539 36.243114 -9.1703663 64.390099 -3.9389408 50.273479
2199000000 -21.027214 -98.456833 -57.485798 28.768593 -9.0407162 57.261345 -3.9243917 42.701889
2200000000 -21.106251 -105.95255 -57.349636 22.132954 -8.9191456 50.101357 -3.9266999 35.188889
2201000000 -21.1714 -113.5488 -57.198971 14.987158 -8.7927217 42.956245 -3.9242048 27.619671
2202000000 -21.210974 -121.08584 -57.093765 7.5684013 -8.6625471 35.795441 -3.9231784 20.09988
2203000000 -21.256781 -128.8876 -56.937908 1.2539033 -8.5337 28.6427 -3.9240642 12.513237
2204000000 -21.287424 -136.63531 -56.818523 -5.8142905 -8.4122343 21.489874 -3.9250467 4.9955263
2205000000 -21.303001 -144.45122 -56.658943 -14.228998 -8.292758 14.324785 -3.9291344 -2.6006978
2206000000 -21.289433 -152.32626 -56.611298 -20.814037 -8.1653652 7.1262684 -3.9331033 -10.191499
2207000000 -21.271034 -159.93289 -56.370453 -28.065193 -8.047039 -0.05911516 -3.9434123 -17.797998
2208000000 -21.28055 -167.8159 -56.242237 -35.580425 -7.9253836 -7.2803254 -3.9409742 -25.40103
2209000000 -21.202877 -175.5296 -56.220863 -42.211617 -7.7987156 -14.4695 -3.9478686 -33.052799
2210000000 -21.128798 176.82121 -56.085068 -49.772598 -7.6744032 -21.679842 -3.9516337 -40.704033
2211000000 -21.050011 169.08705 -55.921783 -56.845791 -7.5637507 -28.911512 -3.9707003 -48.373554
2212000000 -20.986111 161.54477 -55.862644 -64.109879 -7.4422235 -36.183575 -3.9757164 -56.082527
2213000000 -20.872643 154.15125 -55.770985 -70.777786 -7.3350716 -43.385265 -3.9928839 -63.775787
2214000000 -20.768869 146.69653 -55.6614 -77.623993 -7.2195549 -50.640575 -4.001296 -71.494179
2215000000 -20.675768 139.44885 -55.45697 -85.368896 -7.1046362 -57.886654 -4.0079303 -79.263557
2216000000 -20.568951 132.25003 -55.332726 -92.406479 -6.9989018 -65.153458 -4.0319328 -87.03019
2217000000 -20.450928 125.12165 -55.250263 -99.570107 -6.8944273 -72.407211 -4.0460138 -94.825348
2218000000 -20.321459 118.22935 -55.151821 -107.7219 -6.7897511 -79.679245 -4.0605154 -102.62509
2219000000 -20.215668 111.17715 -54.970589 -114.47736 -6.6837845 -87.010025 -4.0764256 -110.48077
2220000000 -20.118126 104.27387 -54.897976 -121.29035 -6.5773559 -94.213043 -4.0841312 -118.22038
2221000000 -20.009184 97.543144 -54.900856 -129.11617 -6.4833174 -101.47524 -4.1025715 -126.08245
2222000000 -19.899181 90.71994 -54.750481 -136.07404 -6.3860359 -108.76225 -4.1143146 -133.94601
2223000000 -19.803782 84.151581 -54.641201 -143.32234 -6.2876434 -116.03784 -4.1204138 -141.783
2224000000 -19.714699 77.664597 -54.502022 -150.5956 -6.1966305 -123.26154 -4.1362906 -149.63225
2225000000 -19.638126 71.119537 -54.456253 -158.00851 -6.1008291 -130.55266 -4.1429362 -157.46573
2226000000 -19.569256 64.807106 -54.397095 -165.18135 -6.0127997 -137.78732 -4.1517467 -165.27461
2227000000 -19.508362 58.302067 -54.20554 -172.11723 -5.9243007 -145.00243 -4.1568756 -173.04446
2228000000 -19.444912 51.839539 -54.146656 -178.95593 -5.839695 -152.23093 -4.1636925 179.14793
2229000000 -19.405394 45.564701 -54.026287 173.0356 -5.7499971 -159.44057 -4.1608329 171.40442
2230000000 -19.386063 39.185734 -53.974018 166.14682 -5.6642456 -166.67496 -4.1597919 163.66205
2231000000 -19.349812 32.759731 -53.918213 159.51425 -5.5792336 -173.8429 -4.1578465 155.94308
2232000000 -19.332331 26.625834 -53.808147 151.81151 -5.4893718 178.95543 -4.1532893 148.25066
2233000000 -19.344341 20.263849 -53.663502 144.80028 -5.4077477 171.78598 -4.14712 140.58905
2234000000 -19.343552 13.984485 -53.578243 137.67241 -5.3219676 164.59526 -4.1368594 132.98067
2235000000 -19.371113 7.6899118 -53.495049 130.26524 -5.2401452 157.43097 -4.1331558 125.40027
2236000000 -19.400764 1.3091571 -53.398067 122.8223 -5.1554165 150.27638 -4.126153 117.83761
2237000000 -19.439932 -5.1340332 -53.383507 116.6756 -5.0714674 143.12752 -4.1139832 110.32478
2238000000 -19.487915 -11.421634 -53.219345 109.04214 -4.9802909 136.00354 -4.1042633 102.8372
2239000000 -19.5532 -18.071444 -53.223095 102.14096 -4.894371 128.85004 -4.090837 95.405823
2240000000 -19.631105 -24.475491 -53.095146 95.135521 -4.8023396 121.71837 -4.0807166 87.93972
2241000000 -19.701466 -31.205967 -52.980167 88.065857 -4.7169628 114.61372 -4.0726895 80.583061
2242000000 -19.781601 -37.661613 -52.840782 80.547012 -4.6279054 107.48913 -4.0634198 73.180145
2243000000 -19.882219 -44.34832 -52.790848 73.874092 -4.5371008 100.35918 -4.0521173 65.826164
2244000000 -19.972706 -51.210293 -52.706013 66.84391 -4.4407539 93.271393 -4.0437856 58.524204
2245000000 -20.081347 -58.167675 -52.551563 59.420544 -4.3485065 86.16198 -4.0436249 51.163975
2246000000 -20.19936 -64.881912 -52.428131 52.543259 -4.2554307 79.022263 -4.0402327 43.891136
2247000000 -20.288496 -72.030045 -52.395061 45.11731 -4.1595387 71.850014 -4.0387058 36.543419
2248000000 -20.422663 -79.246803 -52.356136 38.019619 -4.0528488 64.755623 -4.0244308 29.271646
2249000000 -20.528259 -86.403404 -52.152397 31.111095 -3.957674 57.656464 -4.0293417 21.988045
2250000000 -20.621334 -93.716942 -52.064274 24.200151 -3.852932 50.527107 -4.0314851 14.704158
2251000000 -20.721075 -101.07036 -51.974915 16.675842 -3.7578492 43.347225 -4.0351329 7.3483276
2252000000 -20.834589 -108.55753 -51.822746 9.7760019 -3.6486201 36.195496 -4.039206 0.047715526
2253000000 -20.901855 -116.27855 -51.788757 2.442384 -3.5473173 29.030445 -4.0491991 -7.2944417
2254000000 -20.9867 -123.84196 -51.637058 -4.5716066 -3.4417036 21.88237 -4.0599685 -14.656919
2255000000 -21.053576 -131.63542 -51.559074 -11.383389 -3.3322995 14.678468 -4.0722928 -22.033573
2256000000 -21.109135 -139.43228 -51.451614 -19.123049 -3.2340007 7.478117 -4.0908689 -29.447428
2257000000 -21.149858 -147.13597 -51.348862 -25.942844 -3.1203547 0.27194703 -4.1056395 -36.883186
2258000000 -21.154829 -154.75441 -51.221222 -33.431534 -3.019166 -6.9717503 -4.1258473 -44.396225
2259000000 -21.149666 -162.83896 -51.111935 -40.499142 -2.9126177 -14.192623 -4.1511946 -51.900517
2260000000 -21.169975 -170.71898 -51.024776 -47.690876 -2.810509 -21.476227 -4.1756916 -59.450218
2261000000 -21.118971 -178.49812 -50.859776 -55.042236 -2.7042716 -28.746593 -4.1968837 -67.047897
2262000000 -21.059338 173.60512 -50.792534 -62.273369 -2.5941098 -35.997578 -4.2199254 -74.666878
2263000000 -20.997908 165.91222 -50.681465 -69.622734 -2.4946055 -43.265656 -4.2516975 -82.323463
2264000000 -20.923586 158.08022 -50.562382 -76.908607 -2.3911018 -50.618279 -4.2793045 -90.098335
2265000000 -20.828287 150.54944 -50.464741 -84.132637 -2.2931366 -57.903229 -4.3088274 -97.847755
2266000000 -20.743584 143.07039 -50.368114 -91.318222 -2.1955569 -65.236076 -4.3350897 -105.64397
2267000000 -20.639059 135.49876 -50.236797 -98.7388 -2.1013367 -72.605011 -4.3679676 -113.49205
2268000000 -20.519215 128.16032 -50.173584 -105.68205 -2.0020726 -79.938965 -4.3940897 -121.35294
2269000000 -20.41361 120.84954 -50.064831 -113.05249 -1.9075236 -87.316597 -4.423183 -129.29187
2270000000 -20.289413 113.74779 -49.984734 -120.78408 -1.81867 -94.672607 -4.4517345 -137.27208
2271000000 -20.170273 106.57833 -49.90287 -127.87704 -1.7313839 -101.99933 -4.4730353 -145.21916
2272000000 -20.079475 99.717117 -49.828876 -135.40733 -1.6452639 -109.39399 -4.5015807 -153.21832
2273000000 -19.950022 92.826698 -49.665512 -142.48729 -1.5645862 -116.76988 -4.5224099 -161.21268
2274000000 -19.841803 86.05616 -49.635616 -150.04297 -1.4767796 -124.1469 -4.532403 -169.27003
2275000000 -19.722761 79.213646 -49.569473 -157.22542 -1.3988955 -131.48795 -4.5554132 -177.28644
2276000000 -19.631472 72.373421 -49.478458 -164.5871 -1.322373 -138.87102 -4.5615993 174.69609
2277000000 -19.550474 65.895844 -49.379299 -172.04398 -1.2429055 -146.22986 -4.5711241 166.66211
2278000000 -19.467815 59.38689 -49.303444 -179.31833 -1.1685965 -153.60886 -4.5746269 158.63666
2279000000 -19.382679 52.779968 -49.259586 173.48587 -1.1012338 -160.93462 -4.5778427 150.63918
2280000000 -19.326918 46.258121 -49.151939 165.94598 -1.0354695 -168.2872 -4.5776043 142.664
2281000000 -19.271095 39.709095 -49.122532 158.87363 -0.96178019 -175.59688 -4.5682154 134.75659
2282000000 -19.233831 33.40995 -49.015427 151.22964 -0.89911479 177.06914 -4.5626016 126.84301
2283000000 -19.201363 26.933315 -48.940521 144.14429 -0.82618761 169.78467 -4.5508575 118.94809
2284000000 -19.16176 20.581518 -48.889164 136.94708 -0.7645725 162.46013 -4.544476 111.12411
2285000000 -19.160515 14.185227 -48.793079 129.92365 -0.69576722 155.14171 -4.5302672 103.29877
2286000000 -19.124462 7.5938196 -48.742596 122.51129 -0.63102293 147.87453 -4.5057445 95.601929
2287000000 -19.168146 1.2910976 -48.67765 114.87894 -0.5727188 140.60776 -4.4981894 87.881538
2288000000 -19.163157 -5.2871304 -48.63456 108.03647 -0.50724292 133.33846 -4.4819236 80.217522
2289000000 -19.175974 -11.720806 -48.558636 100.73348 -0.44114611 126.13277 -4.458971 72.629654
2290000000 -19.21454 -18.206409 -48.484745 93.633476 -0.37814051 118.88435 -4.4452496 65.073105
2291000000 -19.269842 -24.773907 -48.403942 86.132652 -0.30754751 111.63886 -4.4271894 57.534828
2292000000 -19.303381 -31.400507 -48.37537 78.888901 -0.24304868 104.39923 -4.4150381 50.023125
2293000000 -19.365852 -38.09481 -48.266666 72.063988 -0.17814048 97.231995 -4.4020295 42.621906
2294000000 -19.405729 -44.770695 -48.167614 64.755417 -0.11177304 89.998322 -4.3882647 35.1731
2295000000 -19.474161 -51.497986 -48.142117 57.586998 -0.037509795 82.778992 -4.3736215 27.784079
2296000000 -19.55471 -58.234699 -48.056442 50.537357 0.023303594 75.566704 -4.3676705 20.407499
2297000000 -19.644453 -65.178551 -47.950546 43.391159 0.096163429 68.369507 -4.3654428 13.071521
2298000000 -19.706175 -72.249008 -47.885712 36.186771 0.17322901 61.192333 -4.3539081 5.7680268
2299000000 -19.770653 -79.235886 -47.83279 28.719555 0.24631746 53.994167 -4.3524323 -1.529196
2300000000 -19.869846 -86.401154 -47.761395 21.849936 0.32106051 46.786354 -4.3536553 -8.7982988
2301000000 -19.916588 -93.72728 -47.671913 14.632171 0.39993307 39.576038 -4.3560071 -16.1047
2302000000 -20.012609 -100.85912 -47.605873 7.747849 0.47016352 32.388752 -4.3616495 -23.385353
2303000000 -20.073917 -108.06897 -47.489555 0.35558107 0.55205083 25.184904 -4.3678379 -30.667423
2304000000 -20.148087 -115.59814 -47.417126 -6.8555622 0.63181663 17.975561 -4.3804617 -37.963505
2305000000 -20.193974 -123.01083 -47.366535 -14.149323 0.71535724 10.765511 -4.3917747 -45.292721
2306000000 -20.228065 -130.70529 -47.325111 -21.199551 0.79303473 3.5454228 -4.4134479 -52.581219
2307000000 -20.250826 -138.3584 -47.132141 -28.678871 0.87604105 -3.7057154 -4.4348211 -59.936611
2308000000 -20.298418 -145.76155 -47.057747 -35.398861 0.96107095 -10.957116 -4.4554276 -67.343231
2309000000 -20.292612 -153.30145 -46.98008 -42.757942 1.0375112 -18.170036 -4.4818902 -74.683998
2310000000 -20.314781 -160.95648 -46.954689 -50.088825 1.125317 -25.400171 -4.50738 -82.10331
2311000000 -20.27495 -168.72513 -46.830086 -57.275063 1.2099286 -32.67852 -4.5452728 -89.481331
2312000000 -20.275892 -176.18295 -46.732162 -64.412346 1.2893449 -39.938297 -4.5727677 -96.970955
2313000000 -20.239515 176.0928 -46.651665 -71.654755 1.3772721 -47.203434 -4.600522 -104.47746
2314000000 -20.160423 168.31157 -46.569336 -78.949829 1.4584496 -54.47789 -4.6455154 -111.96654
2315000000 -20.142906 161.04404 -46.500393 -86.410965 1.5428008 -61.767834 -4.6788249 -119.61753
2316000000 -20.046782 153.39941 -46.348164 -93.600243 1.6278646 -69.073837 -4.7172132 -127.20368
2317000000 -19.972101 146.11221 -46.301781 -100.71467 1.7156072 -76.414093 -4.7519469 -134.88301
2318000000 -19.927588 138.7691 -46.252998 -108.04358 1.7933553 -83.707008 -4.7936139 -142.56827
2319000000 -19.81535 131.66896 -46.131538 -115.51601 1.8739883 -91.018082 -4.8356705 -150.28165
2320000000 -19.706423 124.3511 -46.039219 -122.8112 1.9552652 -98.372864 -4.8688784 -158.07289
2321000000 -19.635086 117.36533 -45.952 -130.08707 2.0395541 -105.74242 -4.9052219 -165.89841
2322000000 -19.538317 110.18478 -45.878746 -137.257 2.1217227 -113.06296 -4.9399314 -173.69324
2323000000 -19.436087 103.18336 -45.809143 -144.81035 2.2014439 -120.38621 -4.969851 178.45668
2324000000 -19.338684 96.387634 -45.706959 -151.84018 2.2770984 -127.75936 -4.9984055 170.54515
2325000000 -19.260504 89.538506 -45.611801 -159.21817 2.3560965 -135.14554 -5.0322933 162.6134
2326000000 -19.183914 82.707916 -45.568123 -166.5714 2.4291365 -142.48941 -5.059916 154.69972
2327000000 -19.087029 76.020851 -45.496357 -173.77721 2.5015454 -149.88203 -5.0829649 146.71356
2328000000 -19.032078 69.311211 -45.40678 178.88251 2.5765321 -157.2504 -5.1023998 138.76041
2329000000 -18.951649 62.601063 -45.332115 171.32736 2.6505888 -164.60725 -5.12287 130.80157
2330000000 -18.898529 56.259644 -45.286789 163.88182 2.7226877 -172.01712 -5.1315579 122.82295
2331000000 -18.835651 49.689877 -45.177994 156.52928 2.7950082 -179.38005 -5.1434488 114.84198
2332000000 -18.797958 43.125317 -45.106583 149.42293 2.8581214 173.2455 -5.15382 106.88
2333000000 -18.765642 36.704971 -45.063591 142.12791 2.933557 165.87048 -5.1573377 98.914612
2334000000 -18.732765 30.170975 -44.93932 134.55164 2.997371 158.45976 -5.1669683 90.950562
2335000000 -18.705263 23.667456 -44.905632 127.26313 3.062392 151.11076 -5.1689444 83.080276
2336000000 -18.721298 17.198408 -44.822788 119.97478 3.1360958 143.73482 -5.1652298 75.152016
2337000000 -18.709299 10.733477 -44.773544 112.73054 3.1973779 136.34547 -5.1654143 67.249657
2338000000 -18.739534 4.1776872 -44.711372 105.4099 3.262593 128.97003 -5.1614566 59.412605
2339000000 -18.72916 -2.3706799 -44.665882 97.936577 3.3245456 121.61211 -5.1598864 51.597012
2340000000 -18.767672 -8.7101107 -44.601322 90.761688 3.3873277 114.21142 -5.1626239 43.751846
2341000000 -18.805908 -15.427294 -44.552822 83.396561 3.4493589 106.83424 -5.1581864 35.935837
2342000000 -18.848232 -21.93502 -44.43922 75.986824 3.5132895 99.474586 -5.152493 28.124737
2343000000 -18.891832 -28.646517 -44.413231 69.003937 3.571208 92.115494 -5.1485949 20.406422
2344000000 -18.95504 -35.284489 -44.316093 61.500389 3.6330316 84.737373 -5.1505847 12.687636
2345000000 -19.021515 -41.909515 -44.23484 54.135727 3.6976168 77.324913 -5.1489725 4.9275212
2346000000 -19.089447 -48.843071 -44.218594 46.939762 3.7598894 70.008636 -5.1495237 -2.7473729
2347000000 -19.165798 -55.686672 -44.136169 39.606571 3.8258193 62.603512 -5.1532202 -10.461185
2348000000 -19.218651 -62.564487 -44.062641 32.245441 3.8759823 55.203884 -5.1618128 -18.120689
2349000000 -19.307898 -69.619141 -43.993877 25.047453 3.9357376 47.852577 -5.1668539 -25.839773
2350000000 -19.390005 -76.717941 -43.939068 17.905779 3.9928689 40.489517 -5.1752234 -33.469742
2351000000 -19.46566 -83.832253 -43.868603 10.544477 4.0508556 33.128574 -5.1877465 -41.150723
2352000000 -19.528494 -91.121391 -43.798656 3.3226354 4.1064014 25.756403 -5.1945767 -48.785355
2353000000 -19.614151 -98.291328 -43.731331 -4.1425242 4.1670418 18.343504 -5.2074957 -56.448071
2354000000 -19.683613 -105.81129 -43.658276 -11.278322 4.2216916 11.014849 -5.2254667 -64.072716
2355000000 -19.7456 -113.22755 -43.585365 -18.865944 4.2763805 3.6041853 -5.2407455 -71.771179
2356000000 -19.784712 -120.7731 -43.508965 -25.894129 4.3303123 -3.7498448 -5.2591181 -79.413918
2357000000 -19.81872 -128.38359 -43.430901 -33.302025 4.3833151 -11.111609 -5.2789207 -87.04287
2358000000 -19.865799 -135.81154 -43.373322 -40.46159 4.4364004 -18.491247 -5.3061271 -94.749557
2359000000 -19.876055 -143.50996 -43.275948 -48.014755 4.4861121 -25.8524 -5.3265796 -102.41842
2360000000 -19.87726 -151.16017 -43.213802 -55.028866 4.5431519 -33.192169 -5.3429136 -110.03931
2361000000 -19.883722 -158.8394 -43.169125 -62.417431 4.5874686 -40.553032 -5.370101 -117.67574
2362000000 -19.870943 -166.60635 -43.067043 -69.814819 4.6427231 -47.898708 -5.3868618 -125.34131
2363000000 -19.805977 -174.1748 -43.007515 -77.076263 4.6902208 -55.283024 -5.414856 -133.03542
2364000000 -19.765617 178.17953 -42.921822 -84.394302 4.7377372 -62.622139 -5.4391146 -140.6971
2365000000 -19.713642 170.61639 -42.868328 -92.1689 4.7889352 -69.950432 -5.4571242 -148.28888
2366000000 -19.624928 163.07068 -42.786636 -99.316864 4.8372645 -77.278694 -5.4805698 -155.96164
2367000000 -19.566103 155.57907 -42.72514 -106.71484 4.8838563 -84.607529 -5.5038481 -163.64316
2368000000 -19.456736 148.2056 -42.678417 -114.08627 4.9331622 -91.953491 -5.5238276 -171.24516
2369000000 -19.373873 140.93469 -42.612202 -121.47858 4.9772096 -99.253304 -5.5432272 -178.89915
2370000000 -19.250523 133.69643 -42.558601 -129.04025 5.0297561 -106.56799 -5.5626764 173.48445
2371000000 -19.169744 126.46983 -42.494049 -136.26286 5.0772319 -113.87296 -5.5755424 165.87035
2372000000 -19.065401 119.30508 -42.436775 -143.75078 5.1220169 -121.18152 -5.5918489 158.24814
2373000000 -18.94096 112.29594 -42.392139 -151.11887 5.1756344 -128.4864 -5.6115928 150.66071
2374000000 -18.832846 105.29911 -42.348484 -158.47192 5.2263713 -135.74519 -5.6216388 143.06697
2375000000 -18.715014 98.482361 -42.289761 -165.76682 5.2744865 -143.06387 -5.6347861 135.50821
2376000000 -18.597033 91.652733 -42.213306 -173.16786 5.3274665 -150.32112 -5.6541104 127.9691
2377000000 -18.507408 84.884842 -42.188564 179.58661 5.3775167 -157.59709 -5.6675072 120.43022
2378000000 -18.404465 78.200699 -42.12426 172.18773 5.43156 -164.87431 -5.6809726 112.90324
2379000000 -18.333864 71.676514 -42.07156 164.76611 5.485487 -172.15802 -5.6904206 105.39729
2380000000 -18.252018 65.127167 -42.018539 157.57306 5.5394859 -179.43797 -5.7010884 97.899338
2381000000 -18.165129 58.638466 -41.958462 150.27501 5.5971971 173.30341 -5.7161007 90.449089
2382000000 -18.10022 52.141384 -41.914654 142.99104 5.6521106 166.02223 -5.7373943 82.909477
2383000000 -18.047281 45.585991 -41.861534 135.59016 5.7106576 158.7292 -5.7485881 75.418602
2384000000 -17.999245 39.305393 -41.804001 128.19229 5.7703738 151.46552 -5.7684035 67.964149
2385000000 -17.945671 32.96154 -41.753925 120.94038 5.8334255 144.15868 -5.7845092 60.507896
2386000000 -17.926464 26.560268 -41.667164 113.68015 5.8961153 136.87694 -5.8114796 53.045147
2387000000 -17.919245 20.273811 -41.618885 106.46735 5.9577479 129.57829 -5.832654 45.549885
2388000000 -17.885399 14.037919 -41.558575 99.165756 6.0191903 122.29411 -5.8544641 38.080994
2389000000 -17.888994 7.6572337 -41.505947 91.730621 6.086154 114.96733 -5.8799319 30.645311
2390000000 -17.907545 1.35847 -41.441944 84.463936 6.1495838 107.6768 -5.9130239 23.108444
2391000000 -17.940828 -4.9881439 -41.384274 77.087967 6.2163854 100.32727 -5.9474673 15.593655
2392000000 -17.953842 -11.236382 -41.292542 69.817238 6.2870784 92.986145 -5.9820113 8.0670271
2393000000 -18.00017 -17.634161 -41.25774 62.451721 6.3582363 85.635841 -6.0157008 0.55987781
2394000000 -18.060822 -24.099504 -41.184837 55.225662 6.4160943 78.291496 -6.0652075 -7.0708442
2395000000 -18.099937 -30.454281 -41.121593 47.676105 6.480886 70.909454 -6.1126022 -14.664585
2396000000 -18.173168 -36.917694 -41.031166 40.335888 6.5532722 63.506729 -6.1566515 -22.239508
2397000000 -18.243845 -43.452648 -40.957581 32.845829 6.6176357 56.112892 -6.2086592 -29.937744
2398000000 -18.325602 -49.958298 -40.926052 25.555424 6.6865239 48.669163 -6.2575364 -37.652107
2399000000 -18.420839 -56.57399 -40.868103 18.143015 6.748683 41.277508 -6.3143606 -45.369087
2400000000 -18.485134 -63.230907 -40.814762 10.723455 6.812675 33.851822 -6.3719521 -53.156422
2401000000 -18.59811 -70.033012 -40.717278 3.2904754 6.8748713 26.39184 -6.4315057 -60.977875
2402000000 -18.694904 -76.825302 -40.660896 -4.2279739 6.9353371 18.936722 -6.4950109 -68.823593
2403000000 -18.80489 -83.54377 -40.610966 -11.590705 6.988739 11.485424 -6.5568395 -76.740601
2404000000 -18.887209 -90.525818 -40.563461 -19.199856 7.0594831 4.0232968 -6.6106744 -84.672043
2405000000 -18.993877 -97.488029 -40.509743 -26.499121 7.1100955 -3.44876 -6.6720462 -92.661125
2406000000 -19.083761 -104.74321 -40.456692 -33.957741 7.1633296 -10.954455 -6.7339897 -100.68402
2407000000 -19.183533 -111.70403 -40.404579 -41.427444 7.2150683 -18.429329 -6.7858005 -108.69283
2408000000 -19.26314 -119.04329 -40.349277 -48.905247 7.266223 -25.954006 -6.842823 -116.82801
2409000000 -19.333872 -126.21307 -40.303173 -56.410397 7.3108563 -33.477272 -6.891634 -124.96913
2410000000 -19.422535 -133.66237 -40.261753 -63.991817 7.3566971 -40.950127 -6.9424858 -133.06589
2411000000 -19.467443 -141.03569 -40.232239 -71.476692 7.3953285 -48.457886 -6.9919224 -141.27579
2412000000 -19.539196 -148.37938 -40.16452 -78.794754 7.4434376 -55.950638 -7.0247154 -149.38272
2413000000 -19.585159 -155.94066 -40.134056 -86.282799 7.4753451 -63.435642 -7.0669055 -157.56226
2414000000 -19.613653 -163.42355 -40.101078 -93.839668 7.5160637 -70.902779 -7.0907235 -165.69572
2415000000 -19.641661 -170.95901 -40.060238 -101.30492 7.5483427 -78.410645 -7.1139436 -173.87596
2416000000 -19.630394 -178.56619 -40.039562 -108.74155 7.5808239 -85.868706 -7.1374717 178.01659
2417000000 -19.622133 173.88036 -40.015053 -116.12669 7.6131406 -93.358391 -7.1547318 169.90599
2418000000 -19.596075 166.4894 -39.9734 -123.54168 7.6459575 -100.80123 -7.1612868 161.84872
2419000000 -19.577282 158.80925 -39.948555 -130.97884 7.6687422 -108.21249 -7.1685801 153.78639
2420000000 -19.517918 151.54549 -39.917255 -138.48314 7.6966677 -115.64565 -7.1627812 145.81459
2421000000 -19.477795 143.99541 -39.897293 -145.80457 7.7239718 -123.05578 -7.1634278 137.84436
2422000000 -19.394623 136.64418 -39.873192 -153.15938 7.748076 -130.45894 -7.1570654 129.94989
2423000000 -19.335485 129.38129 -39.818516 -160.54364 7.774385 -137.87015 -7.1500206 122.11824
2424000000 -19.247566 122.14009 -39.828564 -167.93558 7.8035326 -145.25124 -7.1418376 114.33053
2425000000 -19.15556 115.0128 -39.78801 -175.11743 7.8261375 -152.59319 -7.1294069 106.58871
2426000000 -19.102615 108.05106 -39.763885 177.54764 7.8507991 -159.95027 -7.1144252 98.86824
2427000000 -19.010439 100.90147 -39.735565 170.13107 7.875783 -167.29166 -7.1025581 91.285912
2428000000 -18.908571 93.992912 -39.699032 162.81717 7.9016881 -174.62622 -7.0874138 83.726448
2429000000 -18.835438 86.981522 -39.66375 155.46291 7.928194 178.05104 -7.0811 76.186523
2430000000 -18.746111 80.171509 -39.646179 148.07919 7.9625969 170.71786 -7.067987 68.742271
2431000000 -18.67378 73.478851 -39.612682 140.94516 7.9887557 163.42836 -7.059844 61.304024
2432000000 -18.604704 66.893425 -39.588047 133.75665 8.0215969 156.11465 -7.0574236 53.917923
2433000000 -18.549185 60.316013 -39.563496 126.31569 8.0549526 148.82823 -7.054369 46.607864
2434000000 -18.478333 53.719742 -39.506355 119.0421 8.0877085 141.51613 -7.0506692 39.326752
2435000000 -18.426405 47.327576 -39.487286 111.8831 8.1199398 134.28064 -7.0656281 32.037365
2436000000 -18.402325 40.648197 -39.438065 104.55367 8.1570282 126.94635 -7.0729251 24.787891
2437000000 -18.383787 34.307961 -39.411591 97.287628 8.1946621 119.69162 -7.0908785 17.57515
2438000000 -18.357029 27.840458 -39.352364 90.094757 8.2327137 112.39584 -7.1086311 10.358701
2439000000 -18.327648 21.475466 -39.320343 82.776787 8.2714901 105.1233 -7.1418047 3.1541808
2440000000 -18.345263 15.145419 -39.278721 75.545593 8.3165932 97.818085 -7.172205 -4.017139
2441000000 -18.332167 8.7271948 -39.242783 68.252998 8.3616791 90.52787 -7.2141018 -11.200665
2442000000 -18.374586 2.5364447 -39.188652 60.998165 8.403759 83.242043 -7.260807 -18.410883
2443000000 -18.424152 -3.9301715 -39.124706 53.707603 8.445981 75.913124 -7.3096604 -25.603384
2444000000 -18.458281 -10.218565 -39.091671 46.40395 8.4984779 68.603775 -7.3681965 -32.822243
2445000000 -18.520407 -16.595617 -39.034828 39.122677 8.5446634 61.275356 -7.4286489 -40.084347
2446000000 -18.583706 -22.995157 -38.992134 31.744089 8.592268 53.924908 -7.4990239 -47.385303
2447000000 -18.637577 -29.274632 -38.9552 24.434408 8.6448212 46.584404 -7.5770745 -54.663685
2448000000 -18.746984 -35.718605 -38.902817 17.133734 8.693655 39.231533 -7.6576719 -61.996281
2449000000 -18.832392 -42.181934 -38.84103 9.7742977 8.7450504 31.860716 -7.7408376 -69.417175
2450000000 -18.921133 -48.778404 -38.802563 2.3814673 8.7901669 24.511093 -7.8300886 -76.825516
2451000000 -19.045765 -55.285439 -38.746811 -4.8705645 8.8397236 17.125862 -7.924912 -84.339897
2452000000 -19.175251 -61.901897 -38.685589 -12.220055 8.8891211 9.6907806 -8.0323229 -91.909454
2453000000 -19.270411 -68.530663 -38.647354 -19.655128 8.9362192 2.3097863 -8.1329632 -99.505157
2454000000 -19.40011 -75.343124 -38.596748 -27.154095 8.9860859 -5.1084981 -8.2330341 -107.16262
2455000000 -19.534138 -82.191902 -38.549377 -34.503281 9.0346498 -12.541442 -8.3387537 -114.91103
2456000000 -19.659952 -89.060356 -38.492676 -41.928875 9.0757761 -19.948759 -8.4448376 -122.65296
2457000000 -19.786978 -95.985634 -38.438637 -49.283493 9.1215382 -27.432442 -8.5540829 -130.55515
2458000000 -19.928915 -103.04153 -38.421112 -56.697723 9.1678019 -34.88097 -8.6622267 -138.45612
2459000000 -20.026199 -110.18066 -38.363426 -64.247063 9.2073164 -42.323711 -8.7603769 -146.41937
2460000000 -20.150694 -117.26796 -38.328213 -71.719025 9.2472334 -49.799755 -8.854044 -154.5022
2461000000 -20.275932 -124.61797 -38.283913 -79.10743 9.2849073 -57.265606 -8.9463596 -162.57664
2462000000 -20.38719 -131.96756 -38.25201 -86.471268 9.321537 -64.712112 -9.0484276 -170.7016
2463000000 -20.453657 -139.28275 -38.2033 -93.976181 9.3581982 -72.206551 -9.121232 -178.83728
2464000000 -20.531321 -146.74527 -38.182503 -101.3643 9.3864517 -79.667076 -9.2069311 172.93883
2465000000 -20.62252 -154.27936 -38.151443 -108.76022 9.4239445 -87.129005 -9.2745199 164.69391
2466000000 -20.657846 -161.74417 -38.109112 -116.26827 9.4484901 -94.600647 -9.3380203 156.45798
2467000000 -20.703339 -169.43561 -38.074696 -123.63279 9.4814949 -102.07865 -9.3821354 148.21262
2468000000 -20.719185 -176.87592 -38.056755 -131.06592 9.5023403 -109.53253 -9.4351263 139.959
2469000000 -20.702295 175.33565 -38.042091 -138.54811 9.526824 -116.9995 -9.47262 131.71303
2470000000 -20.737572 167.92328 -38.00053 -145.99556 9.5546989 -124.44791 -9.5014954 123.53236
2471000000 -20.682507 160.31148 -37.98045 -153.44038 9.5779438 -131.91167 -9.5236511 115.31174
2472000000 -20.655296 152.97002 -37.94635 -160.84853 9.603013 -139.3347 -9.5350943 107.20154
2473000000 -20.574156 145.36461 -37.942532 -168.20346 9.6246099 -146.78783 -9.5376692 99.044113
2474000000 -20.520962 137.98271 -37.910076 -175.65399 9.6426573 -154.20605 -9.5474911 91.018784
2475000000 -20.470837 130.70073 -37.888885 176.92679 9.6623554 -161.6393 -9.541935 82.993874
2476000000 -20.345337 123.58691 -37.867634 169.54176 9.6794415 -169.05655 -9.5377674 75.042633
2477000000 -20.285578 116.31618 -37.868935 162.00471 9.6946306 -176.44057 -9.5311642 67.154388
2478000000 -20.173447 109.18513 -37.837135 154.71812 9.714509 176.14279 -9.5215807 59.263523
2479000000 -20.100573 102.29845 -37.805267 147.36223 9.7346983 168.76193 -9.4965534 51.527554
2480000000 -19.99209 95.559868 -37.799915 140.00197 9.7516212 161.37212 -9.4965296 43.792236
2481000000 -19.907606 88.596016 -37.767151 132.62788 9.7683916 154.00558 -9.4890995 36.120289
2482000000 -19.802437 81.849365 -37.755924 125.28139 9.786746 146.6299 -9.4804592 28.521809
2483000000 -19.708656 75.243668 -37.738686 117.94991 9.8041496 139.26785 -9.4835892 20.926695
2484000000 -19.631815 68.594162 -37.716709 110.70964 9.8207693 131.89717 -9.4720516 13.44126
2485000000 -19.548206 62.163055 -37.694164 103.23079 9.8380442 124.53973 -9.4765635 5.9711094
2486000000 -19.488731 55.671303 -37.691784 96.023384 9.8594408 117.18776 -9.4869967 -1.4745969
2487000000 -19.441635 49.281689 -37.666878 88.591972 9.878274 109.85569 -9.5059996 -8.8420334
2488000000 -19.388166 43.117256 -37.62952 81.320961 9.9004259 102.5077 -9.5192947 -16.205729
2489000000 -19.343662 36.83659 -37.62973 73.939674 9.9185467 95.178902 -9.5497732 -23.520584
2490000000 -19.312206 30.574577 -37.597126 66.747108 9.9406128 87.818687 -9.5714703 -30.833609
2491000000 -19.295174 24.374308 -37.574482 59.446735 9.958683 80.505127 -9.6070261 -38.178799
2492000000 -19.300295 18.166325 -37.553814 51.983154 9.9860344 73.16925 -9.6469135 -45.411648
2493000000 -19.290274 11.972934 -37.531555 44.731804 10.006204 65.840675 -9.6968126 -52.651897
2494000000 -19.315168 5.9185262 -37.49905 37.467537 10.033813 58.510258 -9.7512236 -59.961739
2495000000 -19.323509 -0.36172581 -37.489017 30.055889 10.049214 51.128616 -9.8111238 -67.177849
2496000000 -19.376719 -6.3990912 -37.456444 22.716496 10.079975 43.805756 -9.875412 -74.494225
2497000000 -19.431221 -12.500446 -37.420578 15.507634 10.103382 36.466446 -9.9423351 -81.749374
2498000000 -19.515976 -18.636059 -37.396141 8.1346312 10.125929 29.11281 -10.022529 -89.07383
2499000000 -19.58449 -24.748898 -37.38945 0.77716261 10.153021 21.775305 -10.102631 -96.384674
2500000000 -19.670544 -30.974768 -37.351257 -6.4477615 10.174904 14.423386 -10.19739 -103.71559
2501000000 -19.770761 -37.116615 -37.334782 -13.759773 10.204939 7.0840054 -10.277003 -111.07851
2502000000 -19.880634 -43.470341 -37.292793 -21.069044 10.227464 -0.26817483 -10.376878 -118.41252
2503000000 -19.977379 -49.673088 -37.285103 -28.465895 10.256121 -7.6128988 -10.471615 -125.84615
2504000000 -20.114746 -56.118549 -37.252296 -35.824341 10.278067 -14.989847 -10.569267 -133.3452
2505000000 -20.25045 -62.372517 -37.214775 -43.165009 10.30309 -22.352613 -10.679628 -140.81418
2506000000 -20.39447 -68.769279 -37.211624 -50.455753 10.328865 -29.693764 -10.776271 -148.27922
2507000000 -20.543386 -75.367844 -37.167015 -57.757957 10.355178 -37.088608 -10.869244 -155.85744
2508000000 -20.690798 -82.025627 -37.155663 -65.109848 10.379981 -44.457714 -10.983404 -163.49669
2509000000 -20.838848 -88.65284 -37.118622 -72.553001 10.399652 -51.816177 -11.08383 -171.15576
2510000000 -21.010134 -95.332787 -37.086304 -79.849236 10.425372 -59.190647 -11.18454 -178.76823
2511000000 -21.180729 -102.10519 -37.082645 -87.192116 10.449475 -66.578384 -11.281898 173.58031
2512000000 -21.342428 -109.08518 -37.053165 -94.632004 10.472349 -73.953621 -11.377482 165.80724
2513000000 -21.51115 -116.03371 -37.014591 -101.85788 10.494562 -81.338181 -11.468225 158.09692
2514000000 -21.626369 -123.1779 -37.016834 -109.21606 10.514871 -88.703209 -11.576268 150.35382
2515000000 -21.786617 -130.11507 -36.996494 -116.60194 10.535276 -96.080009 -11.650024 142.62129
2516000000 -21.935545 -137.41284 -36.955936 -123.90884 10.557627 -103.44714 -11.738002 134.74455
2517000000 -22.097933 -144.9424 -36.92466 -131.31017 10.577774 -110.83761 -11.823842 127.02363
2518000000 -22.202948 -152.11333 -36.905941 -138.64441 10.596869 -118.21137 -11.885924 119.16847
2519000000 -22.278639 -159.73082 -36.891983 -146.01189 10.616764 -125.60066 -11.964414 111.39853
2520000000 -22.389091 -167.394 -36.8787 -153.27975 10.637868 -132.9852 -12.036351 103.60999
2521000000 -22.47835 -174.59737 -36.841141 -160.64078 10.654151 -140.33252 -12.090122 95.811111
2522000000 -22.515753 177.88043 -36.830624 -168.04317 10.673496 -147.72409 -12.153734 87.996918
2523000000 -22.568825 170.34026 -36.811375 -175.39632 10.690277 -155.10461 -12.227219 80.195572
2524000000 -22.574947 162.67259 -36.79705 177.30733 10.708429 -162.48003 -12.279472 72.399216
2525000000 -22.609911 155.30843 -36.775238 170.02689 10.728324 -169.82137 -12.326436 64.678429
2526000000 -22.586725 147.58463 -36.759392 162.5578 10.741612 -177.23442 -12.390798 56.934723
2527000000 -22.572823 140.45328 -36.727703 155.21132 10.75785 175.41316 -12.437825 49.208763
2528000000 -22.529322 132.92415 -36.712208 147.88457 10.779696 168.02365 -12.495293 41.442547
2529000000 -22.442223 125.92483 -36.688625 140.6039 10.793234 160.66809 -12.553342 33.763439
2530000000 -22.421141 118.4409 -36.676071 133.16856 10.805699 153.30287 -12.615 26.140537
2531000000 -22.32552 111.51264 -36.669804 125.86616 10.823607 145.93758 -12.661593 18.407204
2532000000 -22.259655 104.46832 -36.648159 118.53848 10.838189 138.59009 -12.719542 10.73123
2533000000 -22.143902 97.626205 -36.637398 111.08676 10.853047 131.18958 -12.78999 3.0683067
2534000000 -22.070961 90.935226 -36.615334 103.81022 10.87108 123.82545 -12.840824 -4.5563803
2535000000 -21.996347 84.28849 -36.596375 96.50383 10.883351 116.45248 -12.907271 -12.236588
2536000000 -21.914822 77.602592 -36.570904 89.176041 10.895264 109.10211 -12.974868 -19.876276
2537000000 -21.814137 71.230919 -36.569725 81.837845 10.913232 101.74988 -13.047119 -27.551008
2538000000 -21.765396 64.699959 -36.552643 74.40564 10.927525 94.354332 -13.126405 -35.206074
2539000000 -21.678936 58.450268 -36.537693 67.077766 10.936677 87.002708 -13.190442 -42.809536
2540000000 -21.633783 52.167248 -36.518356 59.703102 10.953353 79.664078 -13.272551 -50.539562
2541000000 -21.541815 46.252697 -36.507301 52.414459 10.96245 72.284149 -13.358865 -58.220676
2542000000 -21.49398 39.820393 -36.494995 45.130665 10.977925 64.936745 -13.433154 -65.901436
2543000000 -21.429884 33.84663 -36.48093 37.715065 10.989705 57.549953 -13.527723 -73.560722
2544000000 -21.400444 27.810345 -36.464397 30.466494 11.000877 50.224831 -13.609427 -81.28566
2545000000 -21.367754 22.016171 -36.478672 23.112452 11.013266 42.859272 -13.693439 -89.110023
2546000000 -21.343264 15.915639 -36.433064 15.728233 11.022608 35.476845 -13.785368 -96.795555
2547000000 -21.339159 10.051163 -36.433907 8.4321747 11.03459 28.123552 -13.877326 -104.57418
2548000000 -21.352285 4.1245003 -36.423347 1.1079823 11.049658 20.820297 -13.936274 -112.37125
2549000000 -21.382536 -1.7193081 -36.406372 -6.2121315 11.054927 13.443523 -14.022804 -120.13601
2550000000 -21.415411 -7.8270373 -36.387848 -13.576277 11.063516 6.095963 -14.098669 -127.96518
2551000000 -21.449659 -13.665608 -36.381145 -20.80382 11.075131 -1.2581456 -14.173956 -135.82529
2552000000 -21.512745 -19.511265 -36.374325 -28.234108 11.087842 -8.5832109 -14.222325 -143.57964
2553000000 -21.578766 -25.608896 -36.371235 -35.524574 11.095719 -15.953046 -14.306902 -151.41737
2554000000 -21.663445 -31.52088 -36.349262 -42.847237 11.103342 -23.303768 -14.346886 -159.28987
2555000000 -21.724791 -37.520157 -36.332329 -50.117817 11.111003 -30.621365 -14.409286 -167.03227
2556000000 -21.83556 -43.726429 -36.330082 -57.523758 11.121313 -37.953758 -14.435965 -174.67252
2557000000 -21.966728 -49.838356 -36.313263 -64.749474 11.129128 -45.282692 -14.479578 177.59494
2558000000 -22.072155 -56.156216 -36.307899 -72.143669 11.137303 -52.617031 -14.499533 169.76318
2559000000 -22.207592 -62.46339 -36.295147 -79.475182 11.145942 -59.969532 -14.524346 162.12187
2560000000 -22.336451 -68.745651 -36.294495 -86.70816 11.154318 -67.279137 -14.534369 154.50438
2561000000 -22.497345 -75.211304 -36.270218 -94.041862 11.160773 -74.611298 -14.551408 146.97841
2562000000 -22.645189 -81.85128 -36.266602 -101.26104 11.168811 -81.928787 -14.557727 139.40103
2563000000 -22.819014 -88.302094 -36.252071 -108.61097 11.179431 -89.25843 -14.55442 132.04561
2564000000 -23.001898 -95.1866 -36.262211 -115.89905 11.184887 -96.577347 -14.556394 124.63105
2565000000 -23.157625 -101.82872 -36.255753 -123.22398 11.18886 -103.87585 -14.561702 117.20831
2566000000 -23.326124 -108.92073 -36.223228 -130.48242 11.199846 -111.19928 -14.547916 110.01427
2567000000 -23.520514 -115.80628 -36.224499 -137.72768 11.209271 -118.47309 -14.557594 102.80302
2568000000 -23.677097 -123.02979 -36.203823 -145.07147 11.215191 -125.78857 -14.549904 95.756943
2569000000 -23.858383 -130.10753 -36.207378 -152.29117 11.224757 -133.09712 -14.555815 88.616341
2570000000 -24.033873 -137.39742 -36.189926 -159.58899 11.228844 -140.38263 -14.577089 81.701218
2571000000 -24.180643 -144.82722 -36.176144 -166.8524 11.239444 -147.70149 -14.58743 74.695435
2572000000 -24.298067 -152.33781 -36.162212 -174.13742 11.25201 -154.98088 -14.608334 67.872482
2573000000 -24.461216 -159.95261 -36.156158 178.60471 11.257655 -162.30759 -14.630613 61.084431
2574000000 -24.557312 -167.35245 -36.150795 171.31296 11.270169 -169.59642 -14.675917 54.336288
2575000000 -24.657141 -174.93773 -36.115036 164.07253 11.278824 -176.88741 -14.711705 47.522381
2576000000 -24.700802 177.73399 -36.117329 156.7025 11.28792 175.8257 -14.770615 40.910713
2577000000 -24.753168 169.98245 -36.102421 149.52798 11.298553 168.52306 -14.846508 34.145313
2578000000 -24.80036 162.6286 -36.103455 142.22928 11.312882 161.2191 -14.92852 27.480196
2579000000 -24.84923 155.01721 -36.083347 134.91071 11.317366 153.92448 -15.019835 20.799879
2580000000 -24.835726 147.74825 -36.073093 127.67329 11.330455 146.64287 -15.121882 14.156596
2581000000 -24.808998 140.457 -36.066494 120.39118 11.340676 139.32936 -15.238398 7.4779005
2582000000 -24.822519 133.40741 -36.058628 113.17149 11.352006 132.04016 -15.375247 0.84442365
2583000000 -24.706436 126.40505 -36.027466 105.82049 11.365977 124.71756 -15.50725 -5.800529
2584000000 -24.656658 119.47591 -36.016506 98.567017 11.377251 117.39515 -15.660758 -12.413786
2585000000 -24.600708 112.655 -36.014484 91.265533 11.389103 110.12658 -15.846526 -19.236166
2586000000 -24.514452 105.99166 -36.002766 83.963577 11.397806 102.78078 -16.038879 -25.971674
2587000000 -24.420216 99.530495 -35.998089 76.61451 11.410305 95.49781 -16.252634 -32.747955
2588000000 -24.282585 93.023964 -35.994694 69.392937 11.423361 88.166878 -16.473244 -39.747383
2589000000 -24.228222 86.946693 -35.965244 62.03561 11.434356 80.866096 -16.722269 -46.622337
2590000000 -24.116531 80.672882 -35.974285 54.709396 11.445342 73.564934 -16.97369 -53.714268
2591000000 -23.96954 74.634621 -35.939411 47.50238 11.453785 66.251183 -17.229719 -60.89732
2592000000 -23.901682 68.865715 -35.936325 40.198624 11.463672 58.907806 -17.508368 -68.134262
2593000000 -23.745491 62.669895 -35.927547 32.89035 11.477922 51.603355 -17.814846 -75.532997
2594000000 -23.655218 57.039265 -35.908165 25.602188 11.485166 44.268688 -18.126125 -83.054062
2595000000 -23.530558 51.598614 -35.904827 18.298647 11.494312 36.962475 -18.42811 -90.819206
2596000000 -23.445677 45.592335 -35.885246 11.005648 11.502811 29.614536 -18.748095 -98.47509
2597000000 -23.359623 40.251335 -35.879482 3.7778916 11.515542 22.330933 -19.072166 -106.74874
2598000000 -23.251213 34.767326 -35.873722 -3.5900631 11.52261 14.985934 -19.391991 -114.94662
2599000000 -23.201143 29.225714 -35.863895 -10.872753 11.52424 7.6491213 -19.730827 -123.30773
2600000000 -23.120684 23.702003 -35.851418 -18.172024 11.537947 0.33881456 -19.988464 -132.12915
2601000000 -23.098047 18.275661 -35.852985 -25.527292 11.541806 -6.9997425 -20.29607 -141.06888
2602000000 -22.999386 12.791685 -35.840355 -32.760536 11.545636 -14.307425 -20.564489 -150.00917
2603000000 -22.972443 7.270277 -35.842838 -40.102543 11.549531 -21.664911 -20.778854 -159.00636
2604000000 -22.935991 1.8844808 -35.840958 -47.369968 11.560578 -28.977245 -20.955227 -168.72876
2605000000 -22.955835 -3.5747335 -35.822861 -54.693287 11.564731 -36.266258 -21.084906 -178.00734
2606000000 -22.939426 -9.0636415 -35.824024 -61.920475 11.566803 -43.572392 -21.198177 172.37799
2607000000 -22.919474 -14.660197 -35.811615 -69.321999 11.574505 -50.885986 -21.25065 162.8221
2608000000 -22.958147 -20.124161 -35.810635 -76.547684 11.576359 -58.206387 -21.242544 153.50432
2609000000 -23.037327 -25.662558 -35.808487 -83.810219 11.576465 -65.503273 -21.232775 144.22031
2610000000 -23.076887 -31.498211 -35.798489 -91.184357 11.578974 -72.803879 -21.102674 135.00243
2611000000 -23.137745 -37.1502 -35.79781 -98.401604 11.584353 -80.140816 -21.005791 126.15356
2612000000 -23.261026 -42.778893 -35.796116 -105.69337 11.590793 -87.443207 -20.873093 117.46507
2613000000 -23.341726 -48.923557 -35.785774 -112.89606 11.587959 -94.739601 -20.715603 109.04207
2614000000 -23.485573 -54.72366 -35.784622 -120.17574 11.593102 -102.02385 -20.523172 100.78467
2615000000 -23.635162 -60.532902 -35.770729 -127.51284 11.597939 -109.32473 -20.331898 92.967117
2616000000 -23.761126 -66.348816 -35.778828 -134.89534 11.593349 -116.60921 -20.147766 85.228508
2617000000 -23.929995 -72.658676 -35.772392 -142.02353 11.595897 -123.90092 -19.95364 77.804161
2618000000 -24.101198 -78.739319 -35.761307 -149.26779 11.600728 -131.17654 -19.749247 70.594627
2619000000 -24.290796 -84.957001 -35.761467 -156.55231 11.602242 -138.44598 -19.553022 63.556263
2620000000 -24.476461 -91.333527 -35.753174 -163.86147 11.606761 -145.74519 -19.413921 56.73447
2621000000 -24.680344 -97.82328 -35.76709 -171.11421 11.602243 -153.04468 -19.240309 49.923061
2622000000 -24.924471 -104.34346 -35.74535 -178.33641 11.60698 -160.31096 -19.091133 43.458004
2623000000 -25.117247 -110.66761 -35.739635 174.46318 11.610887 -167.59767 -18.956718 37.056816
2624000000 -25.344152 -117.29881 -35.737789 167.15392 11.613778 -174.8439 -18.838919 30.843826
2625000000 -25.565084 -124.00465 -35.745964 159.96793 11.613632 177.89311 -18.752283 24.748066
2626000000 -25.764191 -131.0741 -35.734703 152.68008 11.617425 170.61952 -18.650522 18.70808
2627000000 -25.944944 -137.88219 -35.718407 145.42987 11.621829 163.34476 -18.58613 12.604454
2628000000 -26.204481 -144.76181 -35.723316 138.24417 11.623701 156.08121 -18.530384 6.6891379
2629000000 -26.380959 -151.75697 -35.729012 130.93262 11.627345 148.81602 -18.500168 0.97380227
2630000000 -26.584085 -158.91724 -35.714462 123.67198 11.630095 141.5401 -18.485159 -5.0125866
2631000000 -26.748503 -165.72444 -35.719715 116.50966 11.631287 134.29762 -18.485809 -10.701438
2632000000 -26.908211 -173.14287 -35.714706 109.20454 11.638942 127.02615 -18.519472 -16.501642
2633000000 -27.015854 179.72627 -35.704628 101.97485 11.640621 119.7623 -18.549633 -22.072836
2634000000 -27.15378 172.58606 -35.697475 94.703712 11.641547 112.48974 -18.620298 -27.800644
2635000000 -27.226629 165.52217 -35.694283 87.465004 11.649089 105.2364 -18.697264 -33.412579
2636000000 -27.28787 158.01466 -35.687218 80.294601 11.646684 97.991348 -18.819334 -39.122555
2637000000 -27.357714 151.28389 -35.691696 72.991104 11.650279 90.739532 -18.943022 -44.677933
2638000000 -27.403397 143.68114 -35.693138 65.872261 11.6606 83.47184 -19.074934 -50.244644
2639000000 -27.321653 136.83498 -35.665997 58.574631 11.662906 76.208313 -19.242558 -55.900299
2640000000 -27.30533 129.67822 -35.67297 51.166401 11.667727 68.907326 -19.450853 -61.539349
2641000000 -27.264318 123.41824 -35.665459 43.993107 11.673236 61.69445 -19.643084 -67.192284
2642000000 -27.207365 116.5028 -35.662792 36.796497 11.677728 54.426369 -19.852057 -72.873901
2643000000 -27.14205 109.79816 -35.669529 29.534077 11.682645 47.151939 -20.104124 -78.480721
2644000000 -27.033028 103.16048 -35.652885 22.291748 11.686154 39.907192 -20.37394 -84.424713
2645000000 -26.97349 96.989502 -35.642822 15.106037 11.688483 32.674576 -20.68108 -90.096298
2646000000 -26.781452 90.373825 -35.630199 7.7669096 11.695298 25.406158 -20.98144 -95.881294
2647000000 -26.697552 84.465576 -35.639019 0.63918775 11.699837 18.120852 -21.326603 -101.88049
2648000000 -26.585443 78.12281 -35.624161 -6.668901 11.70403 10.853447 -21.685049 -107.82683
2649000000 -26.431614 72.20565 -35.62735 -13.878405 11.710478 3.5916545 -22.05286 -113.93666
2650000000 -26.281404 66.02552 -35.620758 -21.103275 11.715153 -3.6633699 -22.465054 -120.14242
2651000000 -26.1991 60.313782 -35.616772 -28.439074 11.721315 -10.922933 -22.872789 -126.43978
2652000000 -26.027124 54.430347 -35.598598 -35.575928 11.725074 -18.190451 -23.308165 -133.22955
2653000000 -25.929613 48.464787 -35.590954 -42.891068 11.730371 -25.468836 -23.796471 -139.80774
2654000000 -25.794407 42.788506 -35.589848 -50.129841 11.732568 -32.703053 -24.230768 -146.61252
2655000000 -25.715925 37.115524 -35.579655 -57.307003 11.734389 -39.987438 -24.696903 -154.0134
2656000000 -25.628683 31.240187 -35.57502 -64.488464 11.738061 -47.265167 -25.232811 -161.23575
2657000000 -25.501509 25.706633 -35.582581 -71.832817 11.740383 -54.507889 -25.731186 -168.87177
2658000000 -25.475769 19.725811 -35.569771 -79.086807 11.746654 -61.790535 -26.21043 -176.80363
2659000000 -25.388468 14.318757 -35.564335 -86.158966 11.75065 -69.059006 -26.699383 174.8383
2660000000 -25.350052 8.4786606 -35.556076 -93.538719 11.755391 -76.296822 -27.141273 165.69437
2661000000 -25.324287 2.8365188 -35.564457 -100.77846 11.754765 -83.562424 -27.548161 156.82149
2662000000 -25.284882 -2.5783088 -35.555298 -108.00622 11.759418 -90.796967 -27.93902 147.53688
2663000000 -25.302082 -8.7799129 -35.554626 -115.17146 11.760653 -98.085587 -28.264841 137.7509
2664000000 -25.288944 -14.671236 -35.556786 -122.45259 11.766208 -105.37554 -28.529598 127.44266
2665000000 -25.360106 -20.278486 -35.557018 -129.70029 11.766393 -112.60298 -28.666475 117.08159
2666000000 -25.389233 -26.385839 -35.543636 -136.96019 11.769047 -119.86491 -28.764046 106.80636
2667000000 -25.453289 -32.075954 -35.539249 -144.23166 11.771653 -127.1237 -28.76989 97.199821
2668000000 -25.509941 -38.288933 -35.529812 -151.5537 11.77542 -134.36694 -28.733509 87.032036
2669000000 -25.626402 -44.103497 -35.528542 -158.66289 11.777644 -141.65189 -28.557461 77.301346
2670000000 -25.675684 -50.015953 -35.519253 -165.88077 11.779941 -148.88255 -28.345558 68.244835
2671000000 -25.825676 -56.484047 -35.518806 -173.09755 11.782017 -156.16663 -28.115795 59.321053
2672000000 -25.892204 -62.419186 -35.538658 179.58261 11.786456 -163.40619 -27.991173 50.511131
2673000000 -26.039469 -68.940125 -35.511608 172.35822 11.787987 -170.70503 -27.644003 42.438118
2674000000 -26.141611 -75.589653 -35.508022 165.13844 11.783901 -177.92978 -27.418417 34.486462
2675000000 -26.336718 -81.908653 -35.505081 158.01714 11.790013 174.81282 -27.141291 26.647121
2676000000 -26.410795 -88.397186 -35.507992 150.61415 11.789824 167.5605 -26.895302 19.18535
2677000000 -26.555773 -95.469948 -35.510799 143.55074 11.789373 160.30037 -26.668512 12.498702
2678000000 -26.731339 -102.18806 -35.504463 136.20624 11.791682 153.05978 -26.457495 5.2921424
2679000000 -26.785896 -109.13966 -35.506599 128.98409 11.796125 145.78755 -26.216433 -1.801366
2680000000 -26.970932 -116.43027 -35.501274 121.85435 11.79775 138.53583 -26.041695 -8.1313372
2681000000 -27.063803 -123.37829 -35.502739 114.59814 11.794089 131.3027 -25.903976 -14.905601
2682000000 -27.212036 -130.74547 -35.496696 107.33224 11.795637 124.0454 -25.767374 -21.451662
2683000000 -27.269968 -138.31726 -35.492729 100.0497 11.799275 116.78375 -25.667 -27.613964
2684000000 -27.329554 -145.88615 -35.490871 92.852127 11.800417 109.56751 -25.520405 -33.988029
2685000000 -27.351635 -153.2997 -35.491619 85.592888 11.799106 102.3014 -25.463661 -40.220482
2686000000 -27.349308 -160.37817 -35.493176 78.448654 11.797426 95.071846 -25.401419 -46.142349
2687000000 -27.399296 -168.51755 -35.499435 71.160034 11.797434 87.826149 -25.393333 -52.385605
2688000000 -27.405895 -175.92134 -35.502312 63.925777 11.797751 80.568451 -25.376354 -58.719486
2689000000 -27.387444 177.00861 -35.492023 56.720364 11.797114 73.325195 -25.331879 -64.910431
2690000000 -27.298077 169.46214 -35.496601 49.51429 11.800193 66.081322 -25.3685 -70.775429
2691000000 -27.173189 161.86818 -35.499809 42.227913 11.800487 58.840378 -25.382456 -77.029228
2692000000 -27.0716 154.55927 -35.483376 35.143433 11.798019 51.601929 -25.437595 -83.328629
2693000000 -26.939243 147.84967 -35.490238 27.834902 11.797736 44.369987 -25.474586 -89.363823
2694000000 -26.807199 140.43222 -35.482513 20.667454 11.800428 37.132591 -25.547344 -95.645782
2695000000 -26.678528 133.97324 -35.492046 13.391582 11.800545 29.878769 -25.583681 -101.74393
2696000000 -26.533958 127.00115 -35.491028 6.2234836 11.798145 22.656456 -25.687946 -108.22977
2697000000 -26.375946 120.25497 -35.485767 -0.93907225 11.79739 15.431003 -25.798866 -114.36892
2698000000 -26.193832 113.76939 -35.491005 -8.2613182 11.797152 8.1960306 -25.852949 -120.82104
2699000000 -26.052412 107.30604 -35.486538 -15.367014 11.79882 0.96733582 -25.953527 -126.99794
2700000000 -25.846952 100.90521 -35.482094 -22.520798 11.798717 -6.263895 -26.005043 -133.18356
2701000000 -25.694784 95.305168 -35.482231 -29.853289 11.799593 -13.493669 -26.083422 -139.97943
2702000000 -25.543688 88.918182 -35.481773 -37.034302 11.797899 -20.718092 -26.179802 -146.5524
2703000000 -25.373625 83.347061 -35.483974 -44.198334 11.793775 -27.941803 -26.216972 -153.05098
2704000000 -25.23362 77.190994 -35.468849 -51.525578 11.796298 -35.166393 -26.211819 -159.71317
2705000000 -25.039585 71.762917 -35.478233 -58.644966 11.796367 -42.392101 -26.230001 -166.20732
2706000000 -24.943638 65.958229 -35.468658 -65.851204 11.794371 -49.618111 -26.270761 -173.12321
2707000000 -24.767542 60.592453 -35.47364 -72.97831 11.79398 -56.834682 -26.27832 -179.6852
2708000000 -24.671791 55.387775 -35.468845 -80.262779 11.795293 -64.058357 -26.311008 174.02588
2709000000 -24.577288 49.761562 -35.462337 -87.333809 11.795598 -71.27774 -26.255028 166.83588
2710000000 -24.453085 44.341183 -35.470722 -94.648819 11.796722 -78.49057 -26.198641 160.66695
2711000000 -24.320868 39.022541 -35.466656 -101.81229 11.798279 -85.714935 -26.127018 153.79378
2712000000 -24.263649 33.690956 -35.472507 -109.00813 11.796329 -92.944466 -26.018059 147.18834
2713000000 -24.16399 28.737867 -35.475025 -116.24691 11.796091 -100.15594 -25.963184 140.57954
2714000000 -24.116337 23.511894 -35.469627 -123.42067 11.796538 -107.39213 -25.820753 134.25169
2715000000 -24.048376 18.35186 -35.468559 -130.6767 11.796734 -114.58405 -25.709656 127.94473
2716000000 -24.037548 13.188216 -35.452801 -137.7411 11.798463 -121.79711 -25.586218 121.52431
2717000000 -23.986073 8.2398558 -35.462593 -145.06055 11.802823 -129.01685 -25.442732 115.31489
2718000000 -23.948709 2.9484413 -35.465031 -152.16396 11.798728 -136.23189 -25.315144 109.12908
2719000000 -23.92766 -1.7333559 -35.46603 -159.3692 11.800729 -143.43037 -25.149948 103.05025
2720000000 -23.929062 -7.2553334 -35.465187 -166.56961 11.799439 -150.67186 -25.03669 96.995132
2721000000 -23.934858 -12.75449 -35.451305 -173.7513 11.802967 -157.86667 -24.893757 90.729866
2722000000 -24.00724 -17.865252 -35.452896 179.03831 11.80003 -165.08078 -24.825619 84.976334
2723000000 -23.989489 -23.051912 -35.456787 171.808 11.805489 -172.27266 -24.708185 78.929749
2724000000 -24.052818 -28.550924 -35.438652 164.6201 11.806599 -179.50487 -24.623686 73.029457
2725000000 -24.115517 -33.856873 -35.450024 157.52609 11.809176 173.29315 -24.489321 67.210175
2726000000 -24.198519 -39.165276 -35.453308 150.23094 11.811996 166.06509 -24.418724 61.452427
2727000000 -24.26165 -45.193642 -35.443432 143.1039 11.810822 158.82713 -24.359554 55.653641
2728000000 -24.300179 -50.811035 -35.433037 135.83885 11.810312 151.63545 -24.305996 49.746853
2729000000 -24.45104 -56.553043 -35.43457 128.67821 11.817891 144.42186 -24.258604 44.058121
2730000000 -24.536737 -62.23877 -35.425659 121.52924 11.814944 137.20531 -24.275797 38.642223
2731000000 -24.654966 -68.346695 -35.425182 114.28097 11.819565 129.98918 -24.284475 32.653511
2732000000 -24.814053 -74.340561 -35.43322 107.12838 11.820005 122.80753 -24.285906 27.278631
2733000000 -24.944277 -80.891403 -35.427158 99.953171 11.821717 115.55988 -24.317175 21.576511
2734000000 -25.101404 -87.018059 -35.42001 92.725327 11.822729 108.37279 -24.390175 16.035196
2735000000 -25.209846 -93.820274 -35.404053 85.49173 11.824895 101.15398 -24.479231 10.434319
2736000000 -25.408455 -100.46001 -35.411705 78.390556 11.827986 93.953377 -24.6203 4.7911777
2737000000 -25.550642 -107.15144 -35.403088 71.101631 11.831387 86.727684 -24.735943 -0.83750957
2738000000 -25.687168 -114.11489 -35.410637 63.893314 11.828955 79.471138 -24.889864 -6.7314415
2739000000 -25.822926 -121.46179 -35.396206 56.736938 11.832861 72.263557 -25.079443 -12.352246
2740000000 -26.011351 -128.58989 -35.396393 49.571178 11.836503 65.085724 -25.286976 -18.105942
2741000000 -26.127411 -136.12302 -35.409332 42.364841 11.838198 57.840694 -25.524683 -24.094664
2742000000 -26.24032 -143.75389 -35.394844 35.064312 11.837233 50.61414 -25.807953 -29.838621
2743000000 -26.3605 -151.29634 -35.401421 27.97307 11.840468 43.378113 -26.0781 -36.068596
2744000000 -26.489683 -158.86504 -35.403271 20.775223 11.840593 36.185543 -26.386162 -42.191753
2745000000 -26.549366 -166.68924 -35.393909 13.545525 11.838229 28.941059 -26.774706 -48.60656
2746000000 -26.61865 -174.88651 -35.38842 6.3548913 11.846094 21.752903 -27.16111 -55.069996
2747000000 -26.644619 177.23888 -35.395161 -0.88062888 11.844029 14.511876 -27.583374 -61.754017
2748000000 -26.653036 169.43687 -35.398335 -8.0356178 11.845206 7.3144832 -27.979656 -68.802101
2749000000 -26.7111 161.16234 -35.38768 -15.340269 11.844945 0.073200427 -28.391687 -76.150658
2750000000 -26.637094 153.68518 -35.383286 -22.466364 11.845764 -7.1364236 -28.88204 -83.703194
2751000000 -26.582781 145.582 -35.389881 -29.672224 11.845282 -14.343151 -29.374792 -92.074997
2752000000 -26.506462 137.99194 -35.382179 -36.858715 11.840358 -21.559895 -29.898655 -101.36516
2753000000 -26.448145 130.49948 -35.386066 -44.065075 11.845057 -28.797228 -30.313242 -110.78424
2754000000 -26.340675 123.38869 -35.389782 -51.227631 11.841024 -35.998318 -30.72574 -120.81986
2755000000 -26.187296 115.97504 -35.390308 -58.301914 11.838058 -43.257038 -31.042385 -131.72566
2756000000 -26.089121 108.69009 -35.375839 -65.641228 11.84072 -50.426613 -31.333559 -143.23672
2757000000 -25.955517 101.88872 -35.379868 -72.748741 11.836969 -57.642105 -31.421745 -155.20493
2758000000 -25.798508 94.923546 -35.381824 -80.006927 11.837928 -64.883125 -31.40274 -167.34189
2759000000 -25.69735 88.107277 -35.375095 -87.238457 11.840571 -72.081413 -31.20224 -178.93814
2760000000 -25.512842 81.808411 -35.396709 -94.276009 11.835101 -79.277008 -30.802881 169.16066
2761000000 -25.413431 75.39946 -35.383202 -101.62449 11.834913 -86.487617 -30.393711 158.17032
2762000000 -25.218956 69.362419 -35.381844 -108.8125 11.829411 -93.699982 -29.895012 147.67741
2763000000 -25.041069 63.253113 -35.391571 -116.01481 11.834661 -100.91792 -29.220905 137.80611
2764000000 -24.965212 57.16267 -35.39045 -123.15199 11.824125 -108.09377 -28.637192 129.00075
2765000000 -24.804482 51.41396 -35.40036 -130.28346 11.825954 -115.33382 -28.030949 120.08966
2766000000 -24.664797 45.66391 -35.392673 -137.44035 11.823197 -122.51019 -27.424873 112.47211
2767000000 -24.484793 39.970963 -35.387119 -144.60399 11.820826 -129.75711 -26.811224 104.77806
2768000000 -24.42131 34.247417 -35.394726 -151.83194 11.821122 -136.90697 -26.220913 98.070251
2769000000 -24.238005 28.861732 -35.403156 -158.98343 11.819341 -144.15604 -25.667892 90.83387
2770000000 -24.129097 23.26676 -35.393665 -166.21629 11.816724 -151.31436 -25.165928 84.188675
2771000000 -24.023626 18.045534 -35.392422 -173.40181 11.817344 -158.48535 -24.682264 78.216011
2772000000 -23.926222 12.554686 -35.402298 179.40288 11.814927 -165.68195 -24.270479 72.180763
2773000000 -23.85977 6.8454499 -35.408142 172.23352 11.812758 -172.89789 -23.804115 66.118317
2774000000 -23.745907 1.830555 -35.399208 165.09349 11.810358 179.91017 -23.42584 60.443062
2775000000 -23.655352 -3.462497 -35.394669 157.92572 11.810056 172.73218 -23.073215 54.790955
2776000000 -23.584383 -9.1624327 -35.415958 150.76794 11.807445 165.52858 -22.723558 48.852493
2777000000 -23.528751 -14.502048 -35.398197 143.63762 11.802782 158.34579 -22.45219 43.390285
2778000000 -23.525906 -20.196167 -35.409935 136.4691 11.805623 151.17345 -22.173016 37.961121
2779000000 -23.438614 -25.821421 -35.412693 129.16954 11.804377 143.9931 -21.912226 32.65641
2780000000 -23.414362 -31.032248 -35.395931 121.96189 11.803928 136.79236 -21.710287 27.249121
2781000000 -23.388119 -36.834743 -35.40752 114.93901 11.800156 129.60504 -21.510015 21.943209
2782000000 -23.415146 -42.557163 -35.398819 107.87596 11.804557 122.46368 -21.343502 16.594851
2783000000 -23.420721 -48.17128 -35.400444 100.64593 11.804511 115.25606 -21.209999 11.395155
2784000000 -23.451479 -54.153519 -35.400448 93.40448 11.802607 108.06792 -21.091742 6.0216002
2785000000 -23.451288 -60.080559 -35.402519 86.315842 11.802565 100.90663 -20.980602 0.95070577
2786000000 -23.487659 -66.078171 -35.402954 79.133934 11.806749 93.71067 -20.914042 -4.2148323
2787000000 -23.590023 -72.122322 -35.395618 72.038116 11.80456 86.532364 -20.851589 -9.6023216
2788000000 -23.661657 -78.275078 -35.392952 64.709045 11.807783 79.350143 -20.880646 -14.767192
2789000000 -23.717468 -84.437263 -35.393768 57.589142 11.809662 72.195335 -20.861567 -20.05092
2790000000 -23.811493 -90.884575 -35.394981 50.43755 11.808509 64.994186 -20.896996 -25.02952
2791000000 -23.929333 -97.661179 -35.39167 43.375908 11.810074 57.800667 -20.946077 -30.175463
2792000000 -23.990831 -104.13077 -35.376274 36.260128 11.814273 50.638126 -21.011135 -35.440582
2793000000 -24.1423 -110.72906 -35.391354 29.014744 11.810656 43.446075 -21.110983 -40.761536
2794000000 -24.231646 -117.51997 -35.382328 21.969688 11.815547 36.27182 -21.239887 -46.170017
2795000000 -24.393293 -124.56496 -35.380676 14.692394 11.814129 29.053963 -21.357141 -51.242519
2796000000 -24.529453 -131.51906 -35.373943 7.4606586 11.819071 21.881386 -21.59561 -56.720432
2797000000 -24.634502 -138.7597 -35.382404 0.37118888 11.822144 14.719972 -21.76778 -62.138657
2798000000 -24.775581 -146.20981 -35.386765 -6.7980123 11.825596 7.5206223 -22.009588 -67.664322
2799000000 -24.876856 -153.18526 -35.387211 -14.04987 11.8248 0.30525419 -22.235455 -73.295029
2800000000 -24.993652 -160.93204 -35.37392 -21.17378 11.827675 -6.8695059 -22.509096 -78.897507
2801000000 -25.047119 -168.26431 -35.368011 -28.397099 11.828805 -14.04353 -22.783651 -84.818901
2802000000 -25.11253 -176.14679 -35.365746 -35.550198 11.82816 -21.248344 -23.123194 -90.60965
2803000000 -25.175135 176.13402 -35.3634 -42.632851 11.832449 -28.44726 -23.48728 -96.88031
2804000000 -25.268927 168.35097 -35.361122 -49.913303 11.833029 -35.630299 -23.862135 -102.98529
2805000000 -25.293575 161.2159 -35.364628 -57.043789 11.830243 -42.842747 -24.287392 -109.80943
2806000000 -25.28858 153.33791 -35.364655 -64.250839 11.836976 -50.027229 -24.722214 -116.48138
2807000000 -25.251572 145.48451 -35.353783 -71.395943 11.836059 -57.253941 -25.197313 -123.50427
2808000000 -25.239491 137.91507 -35.366013 -78.568245 11.833488 -64.431351 -25.675308 -131.06691
2809000000 -25.167141 130.74072 -35.343189 -85.737091 11.837414 -71.617355 -26.138489 -139.02985
2810000000 -25.15439 123.51149 -35.359818 -93.000961 11.838902 -78.832039 -26.696169 -147.31073
2811000000 -25.060968 115.97984 -35.354935 -100.13998 11.837402 -86.007111 -27.09417 -156.66725
2812000000 -24.990839 108.51103 -35.365486 -107.26409 11.834292 -93.213715 -27.593292 -166.4101
2813000000 -24.872169 101.84985 -35.343422 -114.51511 11.835444 -100.39479 -28.077654 -176.621
2814000000 -24.763258 94.712814 -35.352634 -121.64439 11.832931 -107.5878 -28.379351 172.36839
2815000000 -24.666979 87.986603 -35.355236 -128.78339 11.83413 -114.79131 -28.641256 160.89291
2816000000 -24.561098 81.194778 -35.354385 -136.02695 11.834029 -121.99435 -28.775728 148.9339
2817000000 -24.445904 74.61219 -35.350002 -143.13158 11.831639 -129.16748 -28.784342 137.45796
2818000000 -24.347925 68.578232 -35.355804 -150.27994 11.832735 -136.37872 -28.695318 124.91501
2819000000 -24.202768 62.152714 -35.347275 -157.51331 11.833685 -143.54703 -28.374723 113.46765
2820000000 -24.060492 55.722263 -35.348919 -164.62007 11.831013 -150.77292 -28.00271 101.92869
2821000000 -23.982492 49.667332 -35.362675 -171.79443 11.825659 -157.9343 -27.582798 91.79847
2822000000 -23.834641 43.681877 -35.361168 -178.9799 11.826277 -165.12218 -27.081856 81.808403
2823000000 -23.748892 37.749817 -35.364071 173.87816 11.822585 -172.34937 -26.601614 72.440216
2824000000 -23.624228 31.697145 -35.349628 166.64648 11.82101 -179.476 -26.126034 63.895416
2825000000 -23.51651 25.733574 -35.360477 159.46301 11.821897 173.31017 -25.635284 55.531906
2826000000 -23.403013 19.972305 -35.355404 152.27933 11.820808 166.12712 -25.187391 47.580097
2827000000 -23.320492 14.378084 -35.356739 145.21133 11.821891 158.96553 -24.691471 40.246799
2828000000 -23.242052 8.5329571 -35.36552 137.95949 11.815774 151.77931 -24.285788 32.592842
2829000000 -23.131163 2.5020919 -35.365723 130.79491 11.815961 144.59143 -23.909494 25.803919
2830000000 -23.095304 -3.0536692 -35.366871 123.7237 11.814424 137.43456 -23.540012 19.242683
2831000000 -23.032072 -8.8817883 -35.377041 116.59664 11.813758 130.24576 -23.208479 12.385602
2832000000 -22.975206 -14.642903 -35.367126 109.34618 11.81289 123.06579 -22.90073 5.8608513
2833000000 -22.971012 -20.288378 -35.370434 102.29411 11.811083 115.92894 -22.642313 -0.42030665
2834000000 -22.916922 -26.12859 -35.357536 95.104874 11.810781 108.72355 -22.379978 -6.6884875
2835000000 -22.92156 -32.101521 -35.358456 87.959579 11.808775 101.575 -22.201881 -12.970957
2836000000 -22.915903 -37.913071 -35.377483 80.784653 11.809609 94.390099 -22.028618 -19.097422
2837000000 -22.869555 -43.880745 -35.373573 73.577507 11.803401 87.207817 -21.856049 -25.199528
2838000000 -22.873007 -49.693027 -35.372944 66.492859 11.800116 80.025795 -21.727898 -31.212408
2839000000 -22.874434 -55.718971 -35.369488 59.267574 11.805941 72.887207 -21.615376 -37.311298
2840000000 -22.929623 -61.826252 -35.363865 52.052395 11.807122 65.700699 -21.531179 -43.298248
2841000000 -22.950546 -67.987686 -35.356415 45.092365 11.80662 58.525753 -21.48925 -49.600357
2842000000 -22.994465 -73.98214 -35.364883 37.951431 11.806798 51.359535 -21.445822 -55.451847
2843000000 -23.069632 -80.237198 -35.36639 30.734299 11.806458 44.167671 -21.376915 -61.583397
2844000000 -23.092978 -86.861717 -35.362217 23.56385 11.801943 37.048183 -21.369419 -67.628319
2845000000 -23.183155 -92.972672 -35.363468 16.387314 11.807478 29.859064 -21.389807 -73.669029
2846000000 -23.240345 -99.505226 -35.373711 9.2213745 11.805302 22.67749 -21.471424 -80.039505
2847000000 -23.309155 -105.983 -35.362816 2.0081406 11.80584 15.505624 -21.472334 -86.328316
2848000000 -23.382996 -112.50311 -35.365005 -5.0494518 11.807678 8.3270559 -21.54011 -92.437363
2849000000 -23.437674 -119.15791 -35.361496 -12.183504 11.808023 1.1592689 -21.620754 -98.528496
2850000000 -23.511551 -126.02416 -35.350922 -19.35948 11.807899 -5.9704413 -21.695381 -105.34509
2851000000 -23.601282 -132.73816 -35.370815 -26.552235 11.810093 -13.180472 -21.78936 -111.72753
2852000000 -23.677279 -139.52811 -35.364601 -33.632782 11.80756 -20.356598 -21.899603 -118.2017
2853000000 -23.698084 -146.56953 -35.370342 -40.803356 11.808736 -27.507849 -22.022923 -124.80747
2854000000 -23.783752 -153.58879 -35.365211 -47.971497 11.809919 -34.713139 -22.163942 -131.71652
2855000000 -23.804068 -160.72165 -35.364632 -55.162556 11.808447 -41.864792 -22.291651 -138.59912
2856000000 -23.87009 -167.75528 -35.37426 -62.282745 11.807484 -49.049023 -22.403749 -145.54672
2857000000 -23.923998 -174.9536 -35.370663 -69.503212 11.805951 -56.248642 -22.565153 -152.74249
2858000000 -23.931738 177.86519 -35.368549 -76.625702 11.807358 -63.399689 -22.663586 -159.96167
2859000000 -23.966965 170.60368 -35.370605 -83.87059 11.808476 -70.601608 -22.805954 -167.31529
2860000000 -23.912035 163.39053 -35.372589 -90.828308 11.808743 -77.745705 -22.925158 -175.07938
2861000000 -23.967747 156.3465 -35.368546 -98.047615 11.807812 -84.924286 -23.029232 177.31877
2862000000 -23.936493 149.01297 -35.369587 -105.28619 11.805875 -92.098778 -23.147303 169.67949
2863000000 -23.869171 141.98293 -35.365875 -112.36238 11.804677 -99.268936 -23.204792 161.82179
2864000000 -23.816484 134.63522 -35.347225 -119.49792 11.807619 -106.43052 -23.275173 153.9742
2865000000 -23.756666 127.55056 -35.362694 -126.61123 11.801206 -113.62761 -23.315683 145.71039
2866000000 -23.69729 120.6469 -35.364285 -133.7867 11.803848 -120.82056 -23.382755 137.75641
2867000000 -23.645304 113.75174 -35.372303 -140.92868 11.80337 -127.95049 -23.373001 129.54073
2868000000 -23.548267 106.79666 -35.3633 -148.08224 11.802042 -135.10735 -23.363098 121.55338
2869000000 -23.459547 99.908279 -35.355186 -155.26663 11.801634 -142.26816 -23.374334 113.39486
2870000000 -23.358185 93.165619 -35.360363 -162.43169 11.80342 -149.42996 -23.334743 105.15796
2871000000 -23.296755 86.685944 -35.374565 -169.66336 11.797486 -156.60011 -23.224377 97.340508
2872000000 -23.15963 79.866684 -35.373199 -176.72398 11.798135 -163.7722 -23.188658 89.193977
2873000000 -23.126526 73.091484 -35.366684 176.25403 11.798968 -170.93372 -23.062794 81.287537
2874000000 -22.989374 66.889244 -35.368343 169.08835 11.794756 -178.10027 -23.000448 73.352882
2875000000 -22.917233 60.448997 -35.361046 161.87918 11.796984 174.72447 -22.890013 65.766373
2876000000 -22.863974 54.200096 -35.368454 154.70058 11.796094 167.55788 -22.795269 58.117924
2877000000 -22.763849 47.721245 -35.372021 147.63438 11.797031 160.41182 -22.715998 50.452312
2878000000 -22.651152 41.802124 -35.363754 140.45088 11.795579 153.22661 -22.598408 42.862152
2879000000 -22.603344 35.724106 -35.360508 133.24742 11.797754 146.08582 -22.484703 35.671574
2880000000 -22.558681 29.39459 -35.368542 126.16438 11.797091 138.88478 -22.394413 28.505692
2881000000 -22.477497 23.373842 -35.362282 119.1007 11.795114 131.74756 -22.330528 20.998686
2882000000 -22.431116 17.296965 -35.364571 111.91243 11.794048 124.57454 -22.243238 13.785995
2883000000 -22.408541 11.422511 -35.367672 104.75287 11.798205 117.43049 -22.210705 6.53795
2884000000 -22.37059 5.0097284 -35.37608 97.586357 11.797327 110.24941 -22.16811 -0.30053762
2885000000 -22.342648 -0.7179879 -35.365711 90.451294 11.799801 103.08675 -22.121304 -7.4835148
2886000000 -22.349052 -6.6350608 -35.367035 83.358017 11.795849 95.951752 -22.082232 -14.625005
2887000000 -22.321175 -12.60611 -35.375359 76.100685 11.800226 88.770836 -22.079512 -21.54986
2888000000 -22.346249 -18.693377 -35.366531 69.018921 11.796167 81.636124 -22.089922 -28.64097
2889000000 -22.346498 -24.561188 -35.356743 61.926723 11.799827 74.457184 -22.123508 -35.798328
2890000000 -22.364958 -30.669373 -35.37344 54.692642 11.796859 67.275986 -22.145103 -42.767929
2891000000 -22.389881 -36.578415 -35.34248 47.56612 11.804934 60.119968 -22.210421 -49.854141
2892000000 -22.442177 -42.563446 -35.362087 40.46262 11.806928 52.937927 -22.254099 -57.125626
2893000000 -22.5179 -48.729309 -35.34922 33.29155 11.808237 45.798828 -22.31057 -64.263481
2894000000 -22.536482 -54.673828 -35.35862 26.122839 11.80369 38.659302 -22.412073 -71.751312
2895000000 -22.612883 -60.721249 -35.35952 18.947264 11.804965 31.432817 -22.458157 -78.893005
2896000000 -22.676607 -66.686089 -35.338547 11.837176 11.805058 24.276688 -22.594868 -86.178787
2897000000 -22.744139 -72.941711 -35.348713 4.7511415 11.807772 17.110815 -22.693628 -94.08989
2898000000 -22.809559 -79.38089 -35.357513 -2.4282351 11.803343 9.946147 -22.755936 -101.6881
2899000000 -22.874098 -85.509048 -35.350025 -9.5406199 11.804217 2.7730403 -22.871012 -109.37276
2900000000 -22.93959 -91.971481 -35.351238 -16.770889 11.805301 -4.4088626 -22.963448 -117.30697
2901000000 -23.049292 -98.303757 -35.356293 -23.838575 11.807657 -11.554146 -23.029736 -125.16241
2902000000 -23.106909 -104.79222 -35.350418 -31.047567 11.806469 -18.756105 -23.086948 -133.53107
2903000000 -23.242422 -111.22337 -35.347466 -38.208897 11.802876 -25.933189 -23.133665 -141.60118
2904000000 -23.281569 -118.21104 -35.35247 -45.386196 11.808109 -33.101086 -23.146406 -149.95009
2905000000 -23.350372 -124.80624 -35.364594 -52.498547 11.804819 -40.258213 -23.214796 -158.03703
2906000000 -23.449717 -131.35872 -35.368618 -59.63995 11.800165 -47.38422 -23.166416 -166.7827
2907000000 -23.48793 -138.35748 -35.352161 -66.791908 11.801716 -54.594337 -23.146379 -174.93472
2908000000 -23.547274 -145.39575 -35.36528 -73.960022 11.799281 -61.731979 -23.044868 176.78174
2909000000 -23.589224 -152.43761 -35.363937 -81.116356 11.800221 -68.95153 -22.95586 168.43071
2910000000 -23.647175 -159.48418 -35.371216 -88.252769 11.796045 -76.102089 -22.829247 160.1548
2911000000 -23.639397 -166.49707 -35.365658 -95.530197 11.798438 -83.282379 -22.67757 152.11946
2912000000 -23.651354 -173.87617 -35.370823 -102.5397 11.794769 -90.440193 -22.512991 143.97482
2913000000 -23.69112 178.96889 -35.373604 -109.74306 11.790279 -97.597206 -22.351343 136.06024
2914000000 -23.660707 171.68315 -35.356354 -116.83012 11.78638 -104.73586 -22.16143 128.3029
2915000000 -23.646023 164.20042 -35.391399 -123.97303 11.78436 -111.92035 -21.933411 120.82379
2916000000 -23.610041 157.0199 -35.383961 -131.17226 11.786337 -119.0795 -21.743759 113.36069
2917000000 -23.530241 149.82828 -35.389568 -138.32024 11.775482 -126.23492 -21.545769 106.15906
2918000000 -23.498793 142.33054 -35.383465 -145.37724 11.780569 -133.40953 -21.333187 98.992554
2919000000 -23.407507 134.90985 -35.386326 -152.53554 11.773166 -140.54872 -21.097422 91.962692
2920000000 -23.31329 127.77145 -35.400192 -159.66173 11.769673 -147.70938 -20.922064 85.017494
2921000000 -23.226652 120.75389 -35.395119 -166.75488 11.771073 -154.82407 -20.721779 78.223587
2922000000 -23.136393 113.36823 -35.396965 -173.87259 11.765449 -161.99452 -20.534155 71.781982
2923000000 -23.053555 106.37013 -35.390709 178.97557 11.761755 -169.14737 -20.371981 65.160118
2924000000 -22.923538 99.367287 -35.393555 171.86197 11.763159 -176.2795 -20.220064 58.75507
2925000000 -22.83379 92.381599 -35.396446 164.7939 11.762544 176.58487 -20.065271 52.521667
2926000000 -22.699577 85.597061 -35.400585 157.57059 11.759424 169.43634 -19.932388 46.239391
2927000000 -22.628332 78.760162 -35.390781 150.4986 11.756135 162.29399 -19.835136 39.949162
2928000000 -22.479134 71.989044 -35.405163 143.44669 11.754414 155.16415 -19.733265 33.71846
2929000000 -22.397633 65.467552 -35.386261 136.26982 11.756464 148.01849 -19.648859 27.864017
2930000000 -22.283615 58.728134 -35.411598 129.20865 11.755392 140.87984 -19.598391 21.828962
2931000000 -22.239969 52.28299 -35.407787 122.00289 11.755812 133.72379 -19.557295 15.63327
2932000000 -22.162495 45.68301 -35.398232 114.91366 11.755559 126.62286 -19.561102 9.7752857
2933000000 -22.088198 39.475193 -35.415005 107.77521 11.755804 119.48734 -19.561285 3.6686966
2934000000 -21.994226 32.928001 -35.395691 100.73762 11.759475 112.37898 -19.602095 -2.3257957
2935000000 -21.939505 26.56139 -35.408459 93.546822 11.757013 105.21273 -19.649492 -8.2540474
2936000000 -21.931648 20.557434 -35.406963 86.387825 11.76134 98.084846 -19.713785 -14.231735
2937000000 -21.914179 14.47173 -35.388275 79.32074 11.761258 90.93689 -19.775709 -20.272743
2938000000 -21.846273 8.2551079 -35.385841 72.223068 11.763618 83.813698 -19.912249 -26.309849
2939000000 -21.838373 2.1638155 -35.401291 65.08358 11.763712 76.670609 -20.052128 -32.381077
2940000000 -21.82197 -4.0231514 -35.389942 57.960411 11.77109 69.54126 -20.215673 -38.451099
2941000000 -21.844713 -9.9979486 -35.391689 50.797974 11.772648 62.394344 -20.398417 -44.928539
2942000000 -21.849087 -15.975623 -35.384277 43.71349 11.773974 55.249218 -20.61096 -51.268539
2943000000 -21.864014 -21.894823 -35.384525 36.601116 11.785023 48.085442 -20.859888 -57.444527
2944000000 -21.899946 -27.872866 -35.365971 29.385742 11.780157 40.913952 -21.09502 -63.882809
2945000000 -21.965279 -33.793137 -35.367367 22.339415 11.780828 33.760071 -21.366564 -70.577782
2946000000 -22.002932 -39.86552 -35.374237 15.19111 11.785265 26.629782 -21.659233 -77.403374
2947000000 -22.074989 -45.851913 -35.373981 8.0020542 11.792309 19.44199 -22.01536 -84.676285
2948000000 -22.112509 -51.828922 -35.3634 0.80208802 11.790658 12.301116 -22.330206 -91.657661
2949000000 -22.229265 -57.867439 -35.354561 -6.2718644 11.797526 5.1399379 -22.710072 -98.985039
2950000000 -22.299067 -63.88604 -35.342091 -13.409793 11.798113 -2.0476844 -23.081984 -106.81754
2951000000 -22.339355 -70.013039 -35.353802 -20.601107 11.800917 -9.1919889 -23.484762 -114.87602
2952000000 -22.406054 -75.986916 -35.368328 -27.711962 11.801979 -16.387506 -23.856672 -123.13704
2953000000 -22.497337 -82.111 -35.357727 -34.858498 11.806765 -23.524845 -24.28919 -131.90947
2954000000 -22.567419 -88.173477 -35.357533 -41.997486 11.808014 -30.699591 -24.620401 -141.33665
2955000000 -22.658113 -94.731941 -35.349136 -49.118626 11.805746 -37.841309 -24.961796 -150.95802
2956000000 -22.722961 -100.59404 -35.351856 -56.278637 11.807601 -45.043285 -25.286837 -160.78661
2957000000 -22.807251 -107.03372 -35.344246 -63.466564 11.808829 -52.196926 -25.520288 -171.2713
2958000000 -22.879343 -113.58589 -35.345852 -70.575928 11.809645 -59.392361 -25.702274 178.26559
2959000000 -22.940653 -119.93079 -35.357903 -77.741661 11.810507 -66.556084 -25.77812 167.28166
2960000000 -23.051798 -126.53368 -35.355225 -84.870575 11.80792 -73.752769 -25.78434 156.36957
2961000000 -23.090298 -133.24774 -35.356895 -91.981117 11.810241 -80.913086 -25.693892 145.71501
2962000000 -23.14061 -139.82782 -35.351547 -99.201607 11.80533 -88.085289 -25.445827 135.15855
2963000000 -23.186535 -146.64072 -35.367805 -106.38507 11.805033 -95.248283 -25.225292 124.69112
2964000000 -23.194324 -153.49989 -35.364056 -113.60906 11.799405 -102.41058 -24.93285 114.89928
2965000000 -23.250399 -160.55603 -35.364063 -120.68385 11.799455 -109.56966 -24.544512 105.23056
2966000000 -23.220839 -167.5634 -35.374081 -127.75517 11.799126 -116.74213 -24.152161 96.443588
2967000000 -23.258688 -174.65111 -35.366592 -134.86282 11.79768 -123.92321 -23.76251 87.693848
2968000000 -23.215633 178.43568 -35.371964 -142.07323 11.795145 -131.06479 -23.353243 79.452629
2969000000 -23.243963 171.17793 -35.375824 -149.13057 11.79083 -138.2312 -22.988997 71.406082
2970000000 -23.153843 164.05916 -35.370636 -156.34789 11.789827 -145.39362 -22.557737 63.949921
2971000000 -23.130146 157.06778 -35.383236 -163.56081 11.784739 -152.51996 -22.185726 56.58712
2972000000 -23.070461 150.0399 -35.391312 -170.68471 11.779547 -159.69688 -21.827 49.691223
2973000000 -22.990541 142.53743 -35.393974 -177.81516 11.776868 -166.86185 -21.475821 42.505142
2974000000 -22.907772 135.56921 -35.398277 175.22417 11.771492 -174.00563 -21.160868 35.902958
2975000000 -22.825647 128.49448 -35.396488 167.95644 11.770739 178.82831 -20.83984 29.385134
2976000000 -22.772753 121.41958 -35.389126 160.85445 11.766734 171.71159 -20.578516 23.123098
2977000000 -22.655577 114.32626 -35.409485 153.76759 11.762165 164.57846 -20.330788 16.792608
2978000000 -22.570757 107.40495 -35.400112 146.67336 11.760083 157.43875 -20.088615 10.637418
2979000000 -22.447372 100.35762 -35.405403 139.45981 11.756525 150.31029 -19.912655 4.4988699
2980000000 -22.346468 93.553993 -35.403015 132.46487 11.750108 143.16287 -19.727858 -1.5886555
2981000000 -22.248903 86.952126 -35.40205 125.33072 11.751971 136.03813 -19.552237 -7.6131144
2982000000 -22.211294 80.007988 -35.425632 118.11794 11.750075 128.90926 -19.421087 -13.433593
2983000000 -22.04459 73.451385 -35.416695 111.07336 11.746186 121.76955 -19.30077 -19.408491
2984000000 -21.947979 66.994835 -35.413963 103.99828 11.746129 114.64634 -19.24053 -25.35141
2985000000 -21.861353 60.220959 -35.42186 96.925034 11.746562 107.53231 -19.160616 -31.113964
2986000000 -21.803904 53.850647 -35.424732 89.828918 11.74265 100.40463 -19.11985 -37.085819
2987000000 -21.707006 47.419117 -35.42952 82.625259 11.743691 93.266724 -19.095701 -42.966663
2988000000 -21.671198 41.18251 -35.423546 75.667236 11.739983 86.176582 -19.105747 -48.768894
2989000000 -21.622355 34.868305 -35.44529 68.405197 11.741952 79.023544 -19.113976 -54.589825
2990000000 -21.561808 28.454105 -35.424484 61.308811 11.740885 71.917427 -19.164757 -60.722767
2991000000 -21.550045 22.255995 -35.421974 54.220509 11.742495 64.778198 -19.230396 -66.595329
2992000000 -21.50378 16.117683 -35.420925 47.118176 11.744549 57.645248 -19.313641 -72.594429
2993000000 -21.510361 10.048788 -35.41618 40.04752 11.748584 50.533581 -19.409872 -78.668953
2994000000 -21.482752 4.0984383 -35.412056 32.903049 11.745924 43.38702 -19.530815 -85.054764
2995000000 -21.4879 -2.077529 -35.412529 25.803453 11.749422 36.284672 -19.709381 -91.138992
2996000000 -21.516603 -7.9254518 -35.419846 18.671743 11.753809 29.137962 -19.863571 -97.580315
2997000000 -21.531717 -14.025067 -35.41325 11.520569 11.75405 21.996822 -20.028717 -104.09222
2998000000 -21.535795 -20.061657 -35.412159 4.4342651 11.755134 14.888627 -20.234114 -110.4132
2999000000 -21.602217 -26.097912 -35.420685 -2.6677144 11.758312 7.7493191 -20.454132 -117.00953
3000000000 -21.614096 -32.087128 -35.404255 -9.7169504 11.760056 0.60268527 -20.682938 -123.81403
3001000000 -21.68581 -38.131931 -35.397293 -16.83662 11.765095 -6.5258222 -20.92791 -130.98137
3002000000 -21.734896 -44.310169 -35.408337 -24.005959 11.765613 -13.708007 -21.202991 -138.13556
3003000000 -21.783184 -50.24004 -35.40033 -31.135622 11.774355 -20.81572 -21.432077 -145.28317
3004000000 -21.86323 -56.438061 -35.408798 -38.208549 11.771771 -27.966463 -21.677921 -152.63182
3005000000 -21.938576 -62.24234 -35.400162 -45.37315 11.774559 -35.120598 -21.939493 -160.34232
3006000000 -22.020552 -68.349693 -35.39006 -52.521179 11.775742 -42.265621 -22.192068 -168.23747
3007000000 -22.094551 -74.628433 -35.392994 -59.554092 11.779946 -49.410427 -22.449209 -176.37967
3008000000 -22.188709 -80.954185 -35.396469 -66.727249 11.778852 -56.573498 -22.670324 175.24258
3009000000 -22.250971 -87.201141 -35.393444 -73.797432 11.785796 -63.696339 -22.896641 166.65874
3010000000 -22.348141 -93.343788 -35.37944 -81.027245 11.786601 -70.893501 -23.065197 157.9765
3011000000 -22.429594 -99.581726 -35.385639 -88.30986 11.78758 -78.042473 -23.23411 149.12726
3012000000 -22.533501 -106.15601 -35.388794 -95.149719 11.784014 -85.20787 -23.350697 140.37973
3013000000 -22.594875 -112.88914 -35.382397 -102.48773 11.788651 -92.354202 -23.437153 131.11041
3014000000 -22.66271 -119.28643 -35.377098 -109.53077 11.788425 -99.507202 -23.456108 122.05999
3015000000 -22.779831 -125.86308 -35.385918 -116.70098 11.790471 -106.6729 -23.46814 113.09492
3016000000 -22.819117 -132.68076 -35.378288 -123.87543 11.790689 -113.83916 -23.412167 104.03995
3017000000 -22.895241 -139.24928 -35.381184 -131.02902 11.790397 -120.94721 -23.323769 95.152199
3018000000 -22.957188 -146.2123 -35.386173 -138.1109 11.794627 -128.13205 -23.185656 86.475281
3019000000 -22.993601 -153.00577 -35.38604 -145.13829 11.792748 -135.28365 -23.085279 77.841667
3020000000 -23.061945 -160.05206 -35.39304 -152.4269 11.791487 -142.4539 -22.896877 69.337196
3021000000 -23.098488 -166.87146 -35.378605 -159.46779 11.788703 -149.55913 -22.72554 61.273354
3022000000 -23.084528 -173.90131 -35.381588 -166.59943 11.7883 -156.72998 -22.529383 53.036762
3023000000 -23.135647 179.21698 -35.387783 -173.75006 11.783693 -163.88188 -22.354944 45.106522
3024000000 -23.175825 171.979 -35.391151 179.07454 11.78158 -171.03433 -22.145618 37.571468
3025000000 -23.120197 165.08754 -35.384598 171.95114 11.782104 -178.19467 -21.936129 29.90218
3026000000 -23.12896 157.815 -35.388264 164.79054 11.786176 174.68692 -21.75495 22.665184
3027000000 -23.099201 150.92294 -35.383568 157.72098 11.777552 167.52318 -21.589441 15.50526
3028000000 -23.084457 143.83711 -35.409298 150.61923 11.780551 160.3735 -21.413004 8.4156342
3029000000 -23.035959 136.88116 -35.390858 143.44678 11.780061 153.24065 -21.24966 1.2481637
3030000000 -23.005262 129.75127 -35.403057 136.32869 11.776929 146.10074 -21.084419 -5.3123875
3031000000 -22.972435 123.20544 -35.406513 129.32536 11.775703 138.97217 -20.973902 -12.243299
3032000000 -22.879261 116.06496 -35.393379 122.20437 11.771419 131.81737 -20.864199 -18.985029
3033000000 -22.834587 109.04649 -35.411507 115.02943 11.772389 124.69088 -20.748751 -25.807903
3034000000 -22.742495 102.2496 -35.404259 107.87267 11.771051 117.54559 -20.685585 -32.444469
3035000000 -22.71143 95.472733 -35.398594 100.76139 11.769065 110.41504 -20.602831 -38.982594
3036000000 -22.639017 88.719345 -35.411049 93.672798 11.764396 103.28928 -20.549459 -45.521881
3037000000 -22.59638 82.223946 -35.410801 86.550056 11.768463 96.142357 -20.529921 -52.093788
3038000000 -22.527632 75.478516 -35.420048 79.385071 11.763262 89.016075 -20.517132 -58.881729
3039000000 -22.453278 69.094086 -35.41993 72.269562 11.763048 81.859528 -20.548494 -65.383781
3040000000 -22.406256 62.691822 -35.427212 65.26194 11.763617 74.744827 -20.548458 -71.989143
3041000000 -22.312958 56.399849 -35.420761 58.10944 11.764813 67.609993 -20.593712 -78.751381
3042000000 -22.271759 49.741676 -35.421799 51.005402 11.760045 60.499882 -20.657629 -85.353973
3043000000 -22.238865 43.647995 -35.421917 43.917198 11.757617 53.344948 -20.702923 -92.072914
3044000000 -22.195948 37.537506 -35.413815 36.685017 11.764034 46.219982 -20.805864 -99.090057
3045000000 -22.148195 31.179844 -35.419674 29.60593 11.763687 39.097511 -20.882864 -106.03453
3046000000 -22.139593 24.840538 -35.430721 22.52322 11.762332 31.976446 -20.991449 -113.08251
3047000000 -22.138988 18.660837 -35.430542 15.471205 11.764129 24.827436 -21.103567 -120.10243
3048000000 -22.107742 12.831252 -35.421906 8.3619843 11.760769 17.695356 -21.213373 -127.30675
3049000000 -22.078777 6.5260601 -35.417065 1.2142953 11.764874 10.54031 -21.321999 -134.84262
3050000000 -22.067171 0.57569098 -35.423424 -5.8969383 11.765759 3.4682784 -21.431263 -142.07062
3051000000 -22.087347 -5.5750303 -35.429356 -12.983218 11.770163 -3.7084486 -21.569786 -149.66362
3052000000 -22.109674 -11.576249 -35.414658 -20.180208 11.764934 -10.837022 -21.70966 -157.14345
3053000000 -22.123121 -17.600931 -35.419121 -27.222094 11.76466 -17.959465 -21.820656 -164.90616
3054000000 -22.168955 -23.905371 -35.422112 -34.388138 11.769271 -25.115829 -21.913795 -172.61757
3055000000 -22.207003 -29.86809 -35.405655 -41.505642 11.770714 -32.210487 -21.991623 179.40819
3056000000 -22.232149 -36.053982 -35.404449 -48.556618 11.768172 -39.372124 -22.095509 171.48718
3057000000 -22.31485 -42.239105 -35.424084 -55.738438 11.769146 -46.506931 -22.155159 163.67944
3058000000 -22.357403 -48.526604 -35.404003 -62.834373 11.773887 -53.638268 -22.207006 155.59174
3059000000 -22.449732 -54.682343 -35.413963 -69.926094 11.771783 -60.777805 -22.221365 147.34407
3060000000 -22.514832 -61.201214 -35.413334 -77.019569 11.774033 -67.906158 -22.269005 139.51953
3061000000 -22.603926 -67.366661 -35.408257 -84.17881 11.773797 -75.041824 -22.221146 131.43221
3062000000 -22.683262 -73.753952 -35.417904 -91.185287 11.776839 -82.168335 -22.21937 123.60861
3063000000 -22.740631 -80.177444 -35.421165 -98.372559 11.77913 -89.325645 -22.20191 115.90418
3064000000 -22.827862 -86.639534 -35.404488 -105.38828 11.776227 -96.472801 -22.112755 107.81835
3065000000 -22.95413 -93.560486 -35.411057 -112.59216 11.776119 -103.58945 -22.057854 100.02248
3066000000 -23.036625 -100.15028 -35.421051 -119.72655 11.779036 -110.74464 -21.978899 92.503799
3067000000 -23.166168 -106.72839 -35.419945 -126.83174 11.778375 -117.86341 -21.932938 84.990036
3068000000 -23.202288 -113.50819 -35.422298 -133.92902 11.777271 -125.00471 -21.849833 77.417877
3069000000 -23.282635 -120.34806 -35.409046 -141.02463 11.783235 -132.16829 -21.749495 70.026566
3070000000 -23.381905 -127.44639 -35.40823 -148.19829 11.779545 -139.29826 -21.652645 62.967426
3071000000 -23.450129 -134.25127 -35.40403 -155.36171 11.781548 -146.42189 -21.581125 55.520126
3072000000 -23.512928 -141.39366 -35.411358 -162.44536 11.783051 -153.57596 -21.485619 48.341366
3073000000 -23.571735 -148.07434 -35.404457 -169.50136 11.78574 -160.70341 -21.413233 41.311211
3074000000 -23.604401 -155.4521 -35.406113 -176.63348 11.782035 -167.84608 -21.340313 34.273048
3075000000 -23.671677 -162.45753 -35.404495 176.17876 11.781756 -174.98984 -21.276772 27.628933
3076000000 -23.684839 -169.69839 -35.404526 169.04158 11.784 177.88297 -21.223293 20.471405
3077000000 -23.726583 -176.53307 -35.400311 161.88324 11.783097 170.73378 -21.168438 13.638465
3078000000 -23.70929 176.48897 -35.406967 154.87364 11.786446 163.6078 -21.136711 6.9498801
3079000000 -23.757072 169.15881 -35.399387 147.77541 11.783144 156.45787 -21.115673 0.037525985
3080000000 -23.706991 162.11475 -35.398987 140.63724 11.784469 149.33014 -21.126339 -6.6184797
3081000000 -23.70332 155.2876 -35.405048 133.48599 11.787202 142.19096 -21.109509 -13.48703
3082000000 -23.669035 148.2287 -35.396233 126.42757 11.784653 135.03012 -21.118694 -20.411459
3083000000 -23.61787 141.16553 -35.395336 119.2226 11.78616 127.90745 -21.15177 -27.174442
3084000000 -23.572897 134.28217 -35.403973 112.21894 11.78695 120.75368 -21.203043 -33.978783
3085000000 -23.503164 127.77574 -35.403999 105.01814 11.787648 113.59907 -21.278008 -40.73391
3086000000 -23.472933 120.72085 -35.403179 97.991623 11.786227 106.48096 -21.326775 -47.837036
3087000000 -23.398039 114.12113 -35.404308 90.847702 11.787188 99.364166 -21.459902 -54.786983
3088000000 -23.283812 107.40233 -35.414249 83.707695 11.786804 92.208282 -21.550795 -61.844563
3089000000 -23.255102 101.01196 -35.400692 76.559921 11.786838 85.065079 -21.663124 -69.18792
3090000000 -23.148008 94.619141 -35.419342 69.471382 11.785976 77.925949 -21.770479 -76.454155
3091000000 -23.092466 88.110664 -35.42395 62.310883 11.785079 70.783363 -21.94133 -83.834961
3092000000 -23.044996 81.794754 -35.408405 55.238331 11.784719 63.635937 -22.097254 -91.190643
3093000000 -22.918507 75.485954 -35.400455 48.185478 11.786166 56.542179 -22.270664 -99.117165
3094000000 -22.865299 69.166374 -35.415672 40.96484 11.784101 49.372776 -22.397318 -106.83431
3095000000 -22.757572 62.909733 -35.406075 34.011124 11.785919 42.23679 -22.589149 -114.86967
3096000000 -22.720043 56.891834 -35.406292 26.774269 11.78548 35.080555 -22.736603 -123.23861
3097000000 -22.613935 50.696491 -35.421043 19.772871 11.78564 27.959946 -22.925261 -131.62045
3098000000 -22.564934 44.818848 -35.429775 12.531982 11.782345 20.81184 -23.015697 -140.09709
3099000000 -22.497149 38.783436 -35.418301 5.3839979 11.782105 13.694409 -23.144936 -148.66946
3100000000 -22.467075 32.793613 -35.428249 -1.6653908 11.781205 6.5383859 -23.221159 -157.41519
3101000000 -22.396215 26.701447 -35.425007 -8.8249989 11.779092 -0.58538896 -23.257599 -166.39447
3102000000 -22.337341 20.831575 -35.429234 -15.919724 11.780279 -7.712986 -23.332346 -175.54732
3103000000 -22.33938 14.770776 -35.412228 -22.981396 11.779566 -14.869706 -23.298672 175.24431
3104000000 -22.316727 8.8833179 -35.426903 -30.156433 11.778277 -21.984474 -23.237047 166.3275
3105000000 -22.305061 2.8901734 -35.426575 -37.251263 11.774878 -29.144152 -23.153553 157.20146
3106000000 -22.283976 -3.2429354 -35.419998 -44.407406 11.772147 -36.25423 -23.035288 148.18922
3107000000 -22.299582 -9.4684658 -35.423889 -51.499542 11.771717 -43.395332 -22.901663 139.68813
3108000000 -22.329861 -15.291065 -35.423481 -58.53537 11.770971 -50.534512 -22.719334 131.12697
3109000000 -22.323912 -21.287176 -35.425194 -65.671082 11.767552 -57.646133 -22.55331 122.63451
3110000000 -22.379044 -27.504631 -35.439548 -72.8032 11.770432 -64.784683 -22.320049 114.6856
3111000000 -22.423502 -33.78941 -35.435219 -79.847946 11.765899 -71.924004 -22.098341 106.70369
3112000000 -22.512356 -39.773865 -35.435879 -87.051117 11.765805 -79.057137 -21.852875 98.908104
3113000000 -22.563555 -46.093575 -35.441727 -94.053444 11.767169 -86.17131 -21.628889 91.473572
3114000000 -22.676453 -52.289753 -35.45023 -101.171 11.766027 -93.275398 -21.419401 84.117912
3115000000 -22.776651 -58.506882 -35.436172 -108.23875 11.763058 -100.4084 -21.163279 77.279045
3116000000 -22.843584 -64.983337 -35.443691 -115.39845 11.764619 -107.55653 -20.982975 70.370255
3117000000 -22.978764 -71.520302 -35.433483 -122.45282 11.7647 -114.65752 -20.740376 63.342575
3118000000 -23.083389 -78.311661 -35.437412 -129.66322 11.760717 -121.7689 -20.525583 56.829201
3119000000 -23.214455 -84.819672 -35.433544 -136.6245 11.763692 -128.89944 -20.351007 50.343044
3120000000 -23.360804 -91.274986 -35.444981 -143.78926 11.762701 -136.01961 -20.181145 44.01115
3121000000 -23.461082 -98.112823 -35.441746 -150.89592 11.763202 -143.16505 -20.017679 37.87571
3122000000 -23.636692 -104.84771 -35.450161 -158.04355 11.760173 -150.26451 -19.90423 31.566185
3123000000 -23.792568 -111.77238 -35.436886 -165.13037 11.758536 -157.40314 -19.752361 25.490005
3124000000 -23.909082 -118.58953 -35.44558 -172.23253 11.759554 -164.53841 -19.656048 19.310949
3125000000 -24.074001 -125.83065 -35.43446 -179.37933 11.760721 -171.64235 -19.565699 13.402499
3126000000 -24.191595 -132.98038 -35.438362 173.59195 11.759335 -178.75679 -19.48435 7.6368284
3127000000 -24.33692 -140.01662 -35.445484 166.45601 11.761825 174.12091 -19.443558 1.6344773
3128000000 -24.456984 -147.61783 -35.42852 159.39336 11.764961 167.00935 -19.415216 -4.2702727
3129000000 -24.598097 -154.75891 -35.446526 152.22372 11.764454 159.88091 -19.384308 -10.075279
3130000000 -24.738153 -161.95621 -35.436836 145.15186 11.76705 152.75838 -19.387247 -15.924664
3131000000 -24.785185 -169.06764 -35.432961 138.14326 11.768724 145.65366 -19.41153 -21.920263
3132000000 -24.819927 -176.73186 -35.435501 130.93059 11.770215 138.50801 -19.448593 -27.813898
3133000000 -24.906002 175.75063 -35.441177 123.83516 11.768579 131.41403 -19.520069 -33.83511
3134000000 -24.978174 168.48592 -35.43449 116.82153 11.772153 124.26693 -19.5944 -39.603676
3135000000 -25.039564 161.19736 -35.432983 109.65102 11.770774 117.14824 -19.675037 -45.861107
3136000000 -25.032167 153.97382 -35.43404 102.60217 11.775263 110.01907 -19.810015 -52.035664
3137000000 -24.990263 146.51732 -35.423985 95.519005 11.775135 102.92007 -19.975973 -58.107548
3138000000 -25.000372 139.08279 -35.415653 88.31752 11.776962 95.743561 -20.097258 -64.330627
3139000000 -24.971724 132.06458 -35.427216 81.273895 11.779392 88.644791 -20.315144 -70.754509
3140000000 -24.843824 125.08633 -35.415802 74.146278 11.779472 81.525497 -20.510616 -77.031815
3141000000 -24.812952 117.992 -35.408207 67.081184 11.784125 74.380928 -20.741961 -83.680771
3142000000 -24.737968 111.29888 -35.423477 59.972347 11.785466 67.233337 -20.991791 -90.412361
3143000000 -24.599497 104.31934 -35.411362 52.761963 11.785058 60.093475 -21.25448 -97.381256
3144000000 -24.453354 97.619202 -35.407524 45.722641 11.785243 52.949219 -21.546831 -104.67561
3145000000 -24.437082 90.965797 -35.419727 38.601833 11.787165 45.822598 -21.868458 -112.01904
3146000000 -24.303371 84.538582 -35.418694 31.421947 11.784672 38.68922 -22.17417 -119.84664
3147000000 -24.135933 78.076782 -35.405743 24.342968 11.790384 31.531487 -22.492819 -127.67253
3148000000 -24.029799 71.716103 -35.412483 17.225845 11.789444 24.376373 -22.871353 -135.81317
3149000000 -23.860806 65.386368 -35.417625 10.023605 11.78834 17.288834 -23.152004 -144.34781
3150000000 -23.766224 59.331211 -35.412807 2.9984901 11.790918 10.143341 -23.492517 -153.30898
3151000000 -23.663918 53.128471 -35.407719 -4.2069159 11.793322 2.9834325 -23.785994 -162.89058
3152000000 -23.513556 47.128841 -35.408367 -11.263366 11.791636 -4.1417103 -24.027267 -172.2829
3153000000 -23.397295 41.117397 -35.417122 -18.381176 11.793352 -11.308104 -24.216179 177.71222
3154000000 -23.289053 34.935432 -35.422188 -25.552938 11.790552 -18.425299 -24.337414 167.72919
3155000000 -23.145374 29.034206 -35.420864 -32.734989 11.78892 -25.564783 -24.472317 157.31677
3156000000 -23.061468 23.280994 -35.418816 -39.793758 11.789555 -32.705547 -24.465574 146.89539
3157000000 -22.995018 17.13895 -35.410931 -46.940193 11.787519 -39.839344 -24.404493 136.52254
3158000000 -22.929665 11.293902 -35.423737 -53.925144 11.786318 -46.978424 -24.307161 126.52076
3159000000 -22.846071 5.4707136 -35.414589 -61.157993 11.785988 -54.098518 -24.067751 116.5374
3160000000 -22.790567 -0.65126091 -35.408916 -68.147591 11.782982 -61.239799 -23.854044 107.08423
3161000000 -22.750629 -6.3676229 -35.427071 -75.417763 11.784498 -68.387535 -23.558311 97.987808
3162000000 -22.754408 -12.422004 -35.424736 -82.323853 11.779714 -75.527351 -23.291756 89.007813
3163000000 -22.71677 -18.207317 -35.442085 -89.45652 11.774518 -82.657677 -22.923628 80.594864
3164000000 -22.697554 -24.038303 -35.41811 -96.731506 11.774517 -89.763168 -22.647194 72.418793
3165000000 -22.721418 -30.351366 -35.419792 -103.59421 11.774832 -96.876236 -22.271044 64.668961
3166000000 -22.756607 -36.175098 -35.434067 -110.79272 11.774508 -104.03363 -21.962759 56.975452
3167000000 -22.75412 -42.176144 -35.423592 -117.95393 11.77426 -111.15175 -21.645863 49.654236
3168000000 -22.83556 -48.315517 -35.441467 -124.97962 11.767818 -118.27155 -21.355331 42.664463
3169000000 -22.897871 -54.38448 -35.433651 -132.15378 11.766153 -125.36998 -21.093695 36.031975
3170000000 -22.978607 -60.519699 -35.441631 -139.1983 11.767418 -132.49117 -20.830114 29.276934
3171000000 -23.018162 -66.633759 -35.433216 -146.40565 11.76459 -139.63686 -20.578325 22.883675
3172000000 -23.14707 -72.936668 -35.442524 -153.41577 11.766821 -146.7411 -20.327007 16.571266
3173000000 -23.273285 -79.023125 -35.44854 -160.51945 11.761125 -153.85419 -20.142241 10.435138
3174000000 -23.39163 -85.446289 -35.443562 -167.6162 11.764477 -160.96634 -19.966185 4.2836189
3175000000 -23.498165 -91.808311 -35.43417 -174.68938 11.759409 -168.1048 -19.818714 -1.7665538
3176000000 -23.651779 -97.938362 -35.451935 178.16032 11.760447 -175.21002 -19.659597 -7.7151599
3177000000 -23.771715 -104.69445 -35.455704 171.03615 11.759487 177.69992 -19.548037 -13.622345
3178000000 -23.94101 -111.07542 -35.455585 163.92451 11.758949 170.59177 -19.440058 -19.408928
3179000000 -24.098701 -117.76382 -35.440811 156.85631 11.760094 163.48183 -19.342457 -25.023043
3180000000 -24.265434 -124.51508 -35.452164 149.80855 11.762995 156.34311 -19.272587 -30.764196
3181000000 -24.400208 -130.94144 -35.456272 142.65616 11.761071 149.21834 -19.231941 -36.628384
3182000000 -24.595005 -138.14951 -35.456924 135.57263 11.759914 142.1362 -19.218313 -42.3535
3183000000 -24.752529 -144.79987 -35.450024 128.54811 11.761959 135.00078 -19.192116 -48.016384
3184000000 -24.894798 -151.9328 -35.451565 121.31544 11.760466 127.89136 -19.229584 -53.795429
3185000000 -25.012392 -158.70813 -35.448112 114.31184 11.762721 120.79173 -19.249344 -59.456055
3186000000 -25.167793 -165.79134 -35.437782 107.23895 11.765604 113.67044 -19.296204 -65.483887
3187000000 -25.345291 -172.95784 -35.450516 100.07318 11.763687 106.56049 -19.404745 -71.158752
3188000000 -25.420155 179.94444 -35.437962 93.061241 11.767786 99.453979 -19.47925 -77.145401
3189000000 -25.537169 172.68684 -35.453049 85.874435 11.767727 92.316765 -19.604221 -82.937592
3190000000 -25.599785 165.42734 -35.431019 78.825966 11.770403 85.200897 -19.724121 -89.163445
3191000000 -25.606293 158.10265 -35.429497 71.680473 11.767659 78.073814 -19.855133 -95.242508
3192000000 -25.711151 151.16199 -35.43734 64.604668 11.774541 70.96891 -20.052681 -101.49906
3193000000 -25.776297 143.80287 -35.430756 57.598438 11.775334 63.827847 -20.234224 -107.7093
3194000000 -25.78899 136.94734 -35.437057 50.461147 11.7794 56.743454 -20.483242 -114.29246
3195000000 -25.730675 129.62642 -35.427464 43.345661 11.776139 49.61171 -20.69549 -120.67726
3196000000 -25.69105 122.50145 -35.423943 36.258492 11.779388 42.469631 -20.961674 -127.48991
3197000000 -25.61772 115.58078 -35.424648 29.131014 11.782075 35.357834 -21.224779 -134.32857
3198000000 -25.582232 108.8484 -35.428425 21.934303 11.783043 28.232622 -21.519058 -141.31662
3199000000 -25.528755 101.99923 -35.415318 14.889775 11.784184 21.092497 -21.822603 -148.80185
3200000000 -25.424179 95.25074 -35.432343 7.8383603 11.786655 13.980087 -22.140182 -156.31284
3201000000 -25.338869 88.685883 -35.425224 0.65717316 11.789346 6.8566232 -22.457006 -164.1245
3202000000 -25.197311 82.357292 -35.416721 -6.4430008 11.790936 -0.27967831 -22.771765 -172.14482
3203000000 -25.100899 75.916725 -35.425415 -13.533635 11.793621 -7.4249544 -23.096062 179.49292
3204000000 -25.074524 69.467438 -35.419151 -20.697725 11.793839 -14.552492 -23.402992 171.04164
3205000000 -24.910992 62.9944 -35.406467 -27.762449 11.797667 -21.674973 -23.662703 162.07608
3206000000 -24.790344 57.206631 -35.418343 -34.903927 11.795626 -28.802576 -23.939852 152.6427
3207000000 -24.71537 50.631138 -35.431606 -42.01387 11.792829 -35.957642 -24.176268 143.34703
3208000000 -24.606823 44.667629 -35.421268 -49.099628 11.796139 -43.073528 -24.342772 134.14902
3209000000 -24.549582 38.464272 -35.420689 -56.268658 11.796851 -50.217846 -24.48818 123.82065
3210000000 -24.390903 32.480644 -35.421574 -63.31395 11.799253 -57.335804 -24.50156 114.15672
3211000000 -24.344112 26.707432 -35.414364 -70.365105 11.798533 -64.437027 -24.558157 104.59956
3212000000 -24.313921 20.798241 -35.430748 -77.504066 11.797081 -71.599976 -24.480768 94.512215
3213000000 -24.247208 14.52305 -35.428436 -84.658524 11.798671 -78.736069 -24.390713 85.064583
3214000000 -24.227894 8.7982874 -35.428955 -91.734215 11.797669 -85.872223 -24.252457 75.43325
3215000000 -24.131681 2.7199867 -35.416176 -98.973602 11.800943 -93.007431 -24.081835 66.70578
3216000000 -24.161093 -2.8965852 -35.408798 -105.92297 11.797383 -100.08912 -23.865463 58.129452
3217000000 -24.16118 -9.0131474 -35.418652 -113.13482 11.796713 -107.22474 -23.692837 49.264294
3218000000 -24.176229 -14.753011 -35.434258 -120.2337 11.797061 -114.35336 -23.44356 40.935486
3219000000 -24.207319 -20.814682 -35.410122 -127.33044 11.800538 -121.47564 -23.251228 32.715794
3220000000 -24.2367 -26.520424 -35.412598 -134.41992 11.799079 -128.62369 -22.975773 25.182482
3221000000 -24.283743 -32.590328 -35.408745 -141.43349 11.799523 -135.73663 -22.75399 17.659266
3222000000 -24.359982 -38.881916 -35.430939 -148.69304 11.801421 -142.88727 -22.541523 10.174187
3223000000 -24.430136 -44.536709 -35.425022 -155.72215 11.796586 -149.99825 -22.3382 3.096683
3224000000 -24.513239 -50.716396 -35.420467 -162.83315 11.796427 -157.1481 -22.146978 -3.9370918
3225000000 -24.600649 -57.05051 -35.420383 -170.0182 11.797972 -164.2345 -21.98715 -11.136618
3226000000 -24.718079 -63.589642 -35.413956 -176.99576 11.796706 -171.38705 -21.816956 -17.865061
3227000000 -24.837786 -69.867821 -35.435478 175.82326 11.798174 -178.50085 -21.646809 -24.730026
3228000000 -24.960596 -76.10804 -35.42363 168.80478 11.797932 174.40181 -21.548523 -31.19705
3229000000 -25.060677 -82.71701 -35.425186 161.70013 11.798404 167.2784 -21.448334 -37.762032
3230000000 -25.219236 -89.265633 -35.433292 154.60513 11.797336 160.13074 -21.354364 -44.352245
3231000000 -25.374546 -95.781265 -35.439949 147.41743 11.797967 153.00159 -21.260227 -50.957031
3232000000 -25.54043 -102.82876 -35.433056 140.31396 11.801644 145.89731 -21.196936 -57.447178
3233000000 -25.663603 -109.53311 -35.425926 133.19685 11.796442 138.75519 -21.158834 -64.062744
3234000000 -25.778551 -116.76759 -35.429028 126.11392 11.797752 131.66177 -21.116045 -70.50573
3235000000 -25.864716 -123.9051 -35.421185 118.97066 11.801472 124.53048 -21.123587 -76.802681
3236000000 -26.045618 -130.91919 -35.434856 111.80152 11.800128 117.39859 -21.096682 -83.656578
3237000000 -26.202032 -138.19063 -35.426418 104.86639 11.795279 110.26701 -21.109711 -90.337784
3238000000 -26.271122 -145.79401 -35.424778 97.640022 11.801969 103.14058 -21.12549 -97.15638
3239000000 -26.338905 -153.31824 -35.431793 90.580437 11.797828 95.981171 -21.156288 -103.9676
3240000000 -26.451275 -160.85641 -35.433331 83.462242 11.794884 88.886177 -21.187088 -110.70337
3241000000 -26.516493 -168.38234 -35.420921 76.386711 11.798949 81.744446 -21.231182 -117.68943
3242000000 -26.574074 -176.19501 -35.440163 69.184242 11.79565 74.611328 -21.297924 -124.79383
3243000000 -26.570431 175.93628 -35.427803 62.11301 11.79657 67.492271 -21.357653 -132.03766
3244000000 -26.555729 168.6011 -35.424759 54.967903 11.795138 60.383434 -21.416916 -139.0576
3245000000 -26.512091 160.97073 -35.419304 47.934711 11.796548 53.250217 -21.50725 -146.51784
3246000000 -26.538046 153.10001 -35.429211 40.897095 11.796563 46.116772 -21.553013 -153.9568
3247000000 -26.40505 145.74109 -35.432533 33.716473 11.791752 38.999451 -21.61027 -161.48386
3248000000 -26.418777 138.0741 -35.434731 26.607399 11.789943 31.90576 -21.659643 -169.15547
3249000000 -26.30978 130.56471 -35.445576 19.577312 11.791408 24.776011 -21.726334 -176.86702
3250000000 -26.157646 123.4568 -35.43129 12.428633 11.787395 17.657717 -21.762747 175.30432
3251000000 -26.055319 116.034 -35.451782 5.3511615 11.791313 10.524385 -21.815689 167.51001
3252000000 -25.955952 109.21301 -35.444599 -1.7958578 11.787232 3.3938894 -21.861385 159.59946
3253000000 -25.851711 102.17709 -35.436317 -8.8972359 11.787415 -3.7140465 -21.875166 151.48776
3254000000 -25.727062 95.44754 -35.457966 -15.983524 11.785185 -10.839208 -21.85125 143.7012
3255000000 -25.553951 88.321686 -35.44418 -23.07773 11.784315 -17.941832 -21.849344 135.55911
3256000000 -25.404831 81.840195 -35.450275 -30.233215 11.782063 -25.058039 -21.813139 127.73928
3257000000 -25.22748 75.587608 -35.452499 -37.176643 11.782367 -32.172611 -21.786425 119.95663
3258000000 -25.141932 69.114426 -35.444878 -44.354595 11.781608 -39.27166 -21.762028 112.10271
3259000000 -25.013025 62.942207 -35.446255 -51.466469 11.777373 -46.392216 -21.664408 104.24255
3260000000 -24.952456 56.644363 -35.451778 -58.587425 11.778289 -53.534679 -21.593018 96.747444
3261000000 -24.829374 50.245258 -35.465397 -65.663277 11.777116 -60.629295 -21.517803 89.218811
3262000000 -24.754875 44.600765 -35.462929 -72.696487 11.778482 -67.726814 -21.484541 81.693336
3263000000 -24.614889 38.969505 -35.451546 -79.83313 11.778212 -74.847717 -21.368139 74.433296
3264000000 -24.530439 33.06028 -35.460541 -86.906891 11.774906 -81.932716 -21.315233 67.114403
3265000000 -24.507977 27.011309 -35.465298 -93.988419 11.776642 -89.051582 -21.234842 60.006847
3266000000 -24.425705 21.384649 -35.466209 -101.17088 11.777659 -96.162643 -21.136852 52.901402
3267000000 -24.374731 15.796069 -35.459042 -108.24622 11.774245 -103.28966 -21.123255 45.993458
3268000000 -24.348579 10.249259 -35.46228 -115.2971 11.776831 -110.36686 -21.037411 39.104706
3269000000 -24.314173 4.5663285 -35.465786 -122.33443 11.774756 -117.45745 -20.997585 32.491566
3270000000 -24.327875 -0.62664139 -35.45266 -129.44279 11.781405 -124.58125 -20.985552 25.541353
3271000000 -24.307346 -6.2878256 -35.455051 -136.49922 11.781188 -131.70778 -20.937771 19.138275
3272000000 -24.296026 -11.512154 -35.445919 -143.60075 11.783112 -138.78496 -20.960165 12.550157
3273000000 -24.32498 -17.036636 -35.455315 -150.73438 11.783302 -145.91829 -20.968138 5.8999929
3274000000 -24.33956 -22.33231 -35.435383 -157.75735 11.790028 -153.04291 -20.975016 -0.40025043
3275000000 -24.350872 -27.68082 -35.44313 -164.89336 11.786667 -160.15051 -21.043169 -6.9230647
3276000000 -24.434416 -33.308807 -35.445591 -171.96048 11.789673 -167.2684 -21.106634 -13.273406
3277000000 -24.457941 -38.801208 -35.450382 -179.04869 11.793531 -174.34688 -21.161976 -19.759201
3278000000 -24.462938 -43.786259 -35.433544 173.88959 11.798114 178.5437 -21.248817 -26.35199
3279000000 -24.561617 -49.412487 -35.44693 166.65468 11.798158 171.40527 -21.335135 -32.772316
3280000000 -24.648525 -55.092655 -35.437595 159.64503 11.798783 164.29527 -21.471165 -39.250713
3281000000 -24.73341 -60.663002 -35.435455 152.52225 11.799933 157.1828 -21.635006 -46.076347
3282000000 -24.881384 -66.090233 -35.436478 145.4673 11.805254 150.06416 -21.77421 -52.744896
3283000000 -24.920698 -71.98204 -35.435486 138.37921 11.804908 142.93088 -21.946156 -59.458538
3284000000 -25.036423 -77.372726 -35.43129 131.28224 11.807014 135.81198 -22.097643 -66.514244
3285000000 -25.155617 -83.539452 -35.433987 124.06757 11.814128 128.66057 -22.29652 -73.392006
3286000000 -25.225061 -89.265457 -35.444012 116.93394 11.814378 121.55162 -22.530905 -80.73571
3287000000 -25.337685 -95.235207 -35.436436 109.91824 11.816997 114.4389 -22.745157 -87.979668
3288000000 -25.475349 -101.57691 -35.418468 102.76866 11.819855 107.2835 -22.989666 -95.613594
3289000000 -25.674173 -107.74704 -35.420296 95.642281 11.822131 100.19064 -23.244167 -103.27127
3290000000 -25.750229 -114.5006 -35.427246 88.525787 11.824785 93.011391 -23.47821 -111.65463
3291000000 -25.848787 -120.72517 -35.427467 81.51754 11.823231 85.910194 -23.725708 -120.02578
3292000000 -25.999718 -127.2913 -35.416649 74.313446 11.827949 78.775002 -23.919958 -128.38995
3293000000 -26.125101 -134.2757 -35.42622 67.185898 11.824697 71.602448 -24.132551 -137.33603
3294000000 -26.325047 -141.56802 -35.415195 60.190414 11.826536 64.486717 -24.345505 -146.30585
3295000000 -26.42992 -148.38326 -35.420715 52.922794 11.831809 57.367382 -24.492081 -155.80099
3296000000 -26.518217 -155.47057 -35.432312 45.85339 11.832094 50.193111 -24.606335 -165.34058
3297000000 -26.684866 -162.96707 -35.427753 38.753613 11.83042 43.093956 -24.645849 -174.93973
3298000000 -26.732487 -170.39697 -35.415771 31.604624 11.824758 35.951469 -24.624325 174.56017
3299000000 -26.884209 -177.97072 -35.426666 24.484688 11.824958 28.794609 -24.58963 165.01459
3300000000 -26.911264 174.00414 -35.425289 17.377811 11.82122 21.695482 -24.450825 155.17734
3301000000 -27.019022 166.53278 -35.420338 10.321222 11.822145 14.544766 -24.270458 145.40712
3302000000 -26.993061 158.63289 -35.435333 3.1920466 11.822969 7.4082623 -24.071985 135.72903
3303000000 -27.070198 151.00665 -35.442207 -3.9378603 11.819201 0.25779572 -23.838615 126.51566
3304000000 -27.098255 143.11272 -35.44846 -11.048785 11.817577 -6.8671417 -23.575895 117.28894
3305000000 -27.069334 135.08791 -35.444431 -18.12377 11.814487 -13.97243 -23.223845 108.59383
3306000000 -27.095737 127.25751 -35.450314 -25.246004 11.809215 -21.119371 -22.91514 100.24057
3307000000 -27.020016 119.63615 -35.450588 -32.391445 11.804759 -28.22043 -22.597832 92.204941
3308000000 -26.95195 112.47958 -35.458874 -39.465973 11.804785 -35.35125 -22.251886 84.100945
3309000000 -26.905062 104.6321 -35.452133 -46.542641 11.803514 -42.469631 -21.920551 76.473251
3310000000 -26.836872 97.279793 -35.45911 -53.648186 11.793781 -49.593178 -21.616646 69.202614
3311000000 -26.796738 89.620094 -35.464237 -60.807243 11.793039 -56.695271 -21.30497 61.997921
3312000000 -26.66641 82.183205 -35.470814 -67.874443 11.790956 -63.817703 -21.030443 55.269318
3313000000 -26.673275 75.51474 -35.478558 -75.022842 11.787809 -70.918907 -20.756052 48.278206
3314000000 -26.599785 68.815887 -35.473194 -82.095207 11.78835 -78.014404 -20.497766 41.762661
3315000000 -26.492649 61.778023 -35.472637 -89.153534 11.786472 -85.131348 -20.26158 35.376854
3316000000 -26.486498 55.274597 -35.483284 -96.210007 11.782628 -92.224617 -20.065929 29.059706
3317000000 -26.41954 48.917957 -35.486832 -103.29438 11.779288 -99.322792 -19.87005 22.889862
3318000000 -26.42555 42.702381 -35.499897 -110.37364 11.778007 -106.4389 -19.683022 16.893562
3319000000 -26.32181 35.845905 -35.493267 -117.50483 11.774516 -113.52639 -19.554941 10.884549
3320000000 -26.355532 29.969528 -35.487946 -124.51632 11.771913 -120.61865 -19.405186 5.0876026
3321000000 -26.281591 23.785318 -35.486389 -131.5927 11.771801 -127.71935 -19.319147 -0.77657574
3322000000 -26.258074 18.343046 -35.491714 -138.71175 11.770955 -134.78104 -19.243143 -6.5290589
3323000000 -26.251205 12.218052 -35.481674 -145.79753 11.774624 -141.90594 -19.1763 -12.377283
3324000000 -26.312029 6.5016551 -35.496548 -152.85222 11.770168 -148.99925 -19.140905 -18.004034
3325000000 -26.308268 0.54144484 -35.480915 -159.86484 11.773833 -156.09032 -19.125261 -23.687393
3326000000 -26.274467 -4.6500978 -35.479332 -167.00484 11.773088 -163.17355 -19.137823 -29.388823
3327000000 -26.357073 -10.807924 -35.481602 -174.07858 11.775501 -170.29265 -19.157391 -34.926548
3328000000 -26.357773 -16.020824 -35.477962 178.8235 11.775295 -177.37619 -19.22105 -40.542854
3329000000 -26.418165 -21.530436 -35.492645 171.73045 11.777881 175.51973 -19.303059 -46.157452
3330000000 -26.442755 -26.987173 -35.496956 164.70193 11.782114 168.43445 -19.408319 -51.882854
3331000000 -26.497942 -32.610767 -35.488976 157.59816 11.782864 161.31731 -19.521015 -57.662495
3332000000 -26.55031 -38.156731 -35.492413 150.50838 11.786299 154.23717 -19.653553 -63.456768
3333000000 -26.545309 -43.483158 -35.480427 143.46402 11.786888 147.1282 -19.85763 -69.178436
3334000000 -26.637878 -49.314785 -35.467815 136.32709 11.792123 140.01465 -20.028669 -75.289825
3335000000 -26.71689 -54.961758 -35.463688 129.25729 11.792978 132.91884 -20.25074 -81.23864
3336000000 -26.71723 -60.442741 -35.470238 122.1427 11.80046 125.79778 -20.474977 -87.355011
3337000000 -26.786343 -66.108749 -35.467873 114.98099 11.805859 118.69611 -20.727999 -93.729645
3338000000 -26.827324 -71.895607 -35.457642 107.9917 11.811356 111.57964 -21.047543 -100.11607
3339000000 -26.907385 -78.030357 -35.461918 100.85186 11.810844 104.45773 -21.352631 -106.5703
3340000000 -27.002068 -83.99601 -35.469112 93.791382 11.815957 97.350708 -21.6894 -113.58574
3341000000 -27.076565 -89.798462 -35.447113 86.679489 11.81899 90.229141 -22.072884 -120.63657
3342000000 -27.206665 -96.104324 -35.462513 79.502937 11.821999 83.098 -22.415174 -128.16386
3343000000 -27.207844 -102.67218 -35.458855 72.431877 11.824927 75.96093 -22.817854 -135.73787
3344000000 -27.307247 -108.84444 -35.472439 65.314987 11.827868 68.863647 -23.220221 -143.83466
3345000000 -27.380491 -115.589 -35.456295 58.165543 11.833535 61.70755 -23.620777 -152.27547
3346000000 -27.426853 -121.6334 -35.436504 51.207623 11.829233 54.583149 -24.019539 -161.4744
3347000000 -27.504803 -128.93637 -35.444622 43.991402 11.835396 47.461002 -24.392412 -170.76146
3348000000 -27.537125 -135.64925 -35.448578 36.825756 11.831644 40.301147 -24.756907 179.49274
3349000000 -27.660742 -142.56128 -35.43663 29.731564 11.841735 33.170437 -25.00115 169.04298
3350000000 -27.671104 -149.85617 -35.442318 22.562136 11.842319 26.036186 -25.218695 158.49774
3351000000 -27.677898 -156.95451 -35.4338 15.64276 11.841835 18.893042 -25.328564 147.31346
3352000000 -27.767368 -164.33105 -35.430008 8.3893795 11.838666 11.755469 -25.397886 135.91045
3353000000 -27.77076 -171.72511 -35.451809 1.3082609 11.837684 4.6114593 -25.380159 125.01456
3354000000 -27.797216 -179.21135 -35.432549 -5.8706102 11.843724 -2.498209 -25.135172 113.85355
3355000000 -27.831554 173.38097 -35.448486 -12.993903 11.839283 -9.6367617 -24.885771 103.17075
3356000000 -27.845474 165.99644 -35.444401 -20.076992 11.836728 -16.787926 -24.638494 92.61071
3357000000 -27.851219 158.28598 -35.455334 -27.181461 11.834408 -23.918365 -24.248219 82.827583
3358000000 -27.780928 150.53557 -35.460087 -34.350502 11.83602 -31.059807 -23.853813 73.477829
3359000000 -27.801544 142.94792 -35.453953 -41.375359 11.829906 -38.185368 -23.472843 64.497856
3360000000 -27.776602 135.51349 -35.453217 -48.49725 11.828911 -45.28849 -23.031221 55.971523
3361000000 -27.713987 128.16862 -35.468189 -55.710335 11.820838 -52.440701 -22.650764 47.774109
3362000000 -27.64686 120.67327 -35.461807 -62.809395 11.821864 -59.557938 -22.215401 39.936699
3363000000 -27.56492 113.32243 -35.465187 -69.933411 11.822829 -66.673904 -21.852787 32.39146
3364000000 -27.549873 106.00816 -35.484596 -77.029549 11.816172 -73.796799 -21.506382 25.1849
3365000000 -27.513554 99.254913 -35.482777 -84.061501 11.815172 -80.908836 -21.149799 18.257055
3366000000 -27.45846 92.586502 -35.474957 -91.113808 11.812351 -88.045425 -20.829538 11.220943
3367000000 -27.376921 85.310051 -35.487869 -98.244041 11.808299 -95.164017 -20.542984 4.7252216
3368000000 -27.34042 78.430984 -35.492306 -105.37231 11.806179 -102.26241 -20.273415 -1.784523
3369000000 -27.242451 71.87941 -35.492729 -112.50001 11.803688 -109.34402 -20.053648 -8.0112762
3370000000 -27.293596 65.70433 -35.495373 -119.51624 11.799579 -116.49337 -19.799501 -14.153525
3371000000 -27.193636 59.172192 -35.499489 -126.63948 11.794691 -123.56099 -19.616808 -20.296919
3372000000 -27.175518 52.934055 -35.497627 -133.75389 11.792052 -130.66449 -19.44759 -26.328676
3373000000 -27.15344 46.671497 -35.510265 -140.83521 11.793078 -137.79402 -19.298605 -32.362991
3374000000 -27.169182 40.439026 -35.506161 -147.95508 11.791609 -144.88402 -19.179688 -38.27729
3375000000 -27.154884 34.896332 -35.500267 -154.91211 11.791575 -151.95854 -19.072691 -44.022285
3376000000 -27.200577 29.219536 -35.516346 -162.05531 11.789042 -159.07608 -18.996984 -49.861279
3377000000 -27.261955 23.489513 -35.51474 -169.14648 11.787441 -166.15218 -18.92885 -55.525318
3378000000 -27.219042 18.009468 -35.515434 -176.12906 11.784762 -173.24477 -18.921989 -61.467373
3379000000 -27.278088 12.044107 -35.517246 176.78102 11.787485 179.65132 -18.89373 -67.132172
3380000000 -27.31566 6.654933 -35.51173 169.62601 11.784182 172.57333 -18.8927 -72.861931
3381000000 -27.349659 1.04794 -35.508614 162.60063 11.783649 165.46751 -18.90914 -78.654327
3382000000 -27.494822 -4.0348186 -35.529274 155.51826 11.782825 158.38559 -18.960512 -84.527817
3383000000 -27.484499 -9.8224955 -35.518692 148.34512 11.788201 151.27998 -19.036274 -90.313622
3384000000 -27.606249 -15.046677 -35.520714 141.31259 11.788026 144.20531 -19.108625 -96.099602
3385000000 -27.636906 -20.553036 -35.515331 134.29601 11.792112 137.10033 -19.206041 -102.13555
3386000000 -27.747581 -25.728069 -35.502987 127.07377 11.791089 129.99223 -19.336584 -108.29326
3387000000 -27.827616 -31.276356 -35.506565 120.12299 11.794058 122.9095 -19.468912 -114.2187
3388000000 -28.000237 -36.641144 -35.496365 112.94843 11.795841 115.78896 -19.615389 -120.42192
3389000000 -28.129963 -41.450127 -35.509129 105.91796 11.797365 108.72429 -19.761454 -126.63808
3390000000 -28.225079 -47.319565 -35.520626 98.738281 11.802564 101.60455 -19.962547 -132.91608
3391000000 -28.336277 -52.802032 -35.507385 91.769051 11.802494 94.499977 -20.149746 -139.40791
3392000000 -28.521759 -58.706284 -35.503559 84.618851 11.803693 87.39772 -20.377064 -146.13483
3393000000 -28.677906 -64.644539 -35.498062 77.552368 11.806572 80.27462 -20.612886 -152.90933
3394000000 -28.835621 -69.95031 -35.513363 70.398956 11.811935 73.176773 -20.817543 -159.78682
3395000000 -28.908401 -75.517418 -35.491611 63.379238 11.813614 66.074486 -21.044113 -167.00352
3396000000 -29.229832 -81.77739 -35.505417 56.316475 11.817901 58.970249 -21.324709 -174.28918
3397000000 -29.301609 -88.166245 -35.508118 49.237919 11.818807 51.831661 -21.545885 178.25571
3398000000 -29.513458 -93.894493 -35.50024 42.085022 11.823439 44.699524 -21.779102 170.52968
3399000000 -29.71501 -100.43011 -35.485893 34.975887 11.826368 37.615376 -21.999226 162.57486
3400000000 -29.867001 -106.46793 -35.499954 27.850481 11.825632 30.505302 -22.283804 154.39587
3401000000 -30.091421 -113.6739 -35.490929 20.743219 11.831824 23.369787 -22.49404 146.10239
3402000000 -30.199135 -121.11333 -35.488811 13.606922 11.829048 16.263266 -22.66828 137.45576
3403000000 -30.391005 -128.23964 -35.493034 6.5512924 11.835777 9.1334352 -22.88983 128.85718
3404000000 -30.621866 -135.66245 -35.495556 -0.61564946 11.839144 2.0102463 -23.002897 119.90291
3405000000 -30.751486 -142.50867 -35.488056 -7.5769315 11.839881 -5.0928149 -23.140369 110.94511
3406000000 -30.831167 -150.30983 -35.47686 -14.771644 11.837891 -12.233216 -23.233049 101.73563
3407000000 -30.97994 -158.13812 -35.486561 -21.936247 11.837605 -19.359562 -23.32695 92.566956
3408000000 -31.180964 -166.25717 -35.482449 -28.97257 11.845911 -26.503508 -23.341909 83.123627
3409000000 -31.196167 -174.61215 -35.48201 -36.094921 11.847183 -33.604671 -23.298615 74.2416
3410000000 -31.236959 177.45996 -35.493622 -43.186317 11.84906 -40.725132 -23.264414 64.762001
3411000000 -31.225752 168.85324 -35.486252 -50.294388 11.845361 -47.854336 -23.212883 55.806137
3412000000 -31.265524 161.15753 -35.489826 -57.435581 11.845926 -54.995777 -23.126116 46.839451
3413000000 -31.135946 151.90486 -35.482422 -64.550598 11.845141 -62.112 -23.013573 37.946918
3414000000 -31.072069 144.18936 -35.489136 -71.627602 11.846207 -69.239601 -22.914499 29.493086
3415000000 -31.007339 136.12595 -35.484753 -78.689682 11.848913 -76.369621 -22.736618 20.746981
3416000000 -30.916927 128.11725 -35.496681 -85.852188 11.847677 -83.506081 -22.567299 12.380964
3417000000 -30.715042 120.0167 -35.493923 -93.047287 11.846292 -90.637634 -22.476563 4.2222261
3418000000 -30.642143 112.47692 -35.493832 -100.13643 11.847734 -97.731987 -22.328663 -3.8048892
3419000000 -30.384907 105.10732 -35.486958 -107.22433 11.846378 -104.86961 -22.16589 -11.770404
3420000000 -30.157328 97.275887 -35.492401 -114.38282 11.844874 -111.99812 -22.022055 -19.64592
3421000000 -29.974091 89.942749 -35.49704 -121.46513 11.847269 -119.11221 -21.890619 -27.305704
3422000000 -29.781054 83.350647 -35.504726 -128.64738 11.843009 -126.24757 -21.765768 -35.031208
3423000000 -29.639351 75.830856 -35.514339 -135.70699 11.840813 -133.34851 -21.667343 -42.535851
3424000000 -29.472754 69.562408 -35.495701 -142.84406 11.841373 -140.48045 -21.574835 -49.956615
3425000000 -29.306589 62.683933 -35.515083 -149.81779 11.842502 -147.58586 -21.454687 -57.451557
3426000000 -29.139931 56.115047 -35.515072 -156.98653 11.839842 -154.70451 -21.376411 -64.781052
3427000000 -29.081141 50.05336 -35.514431 -164.08696 11.838648 -161.8175 -21.318127 -72.078316
3428000000 -28.927553 43.104794 -35.523182 -171.2543 11.836358 -168.97704 -21.23287 -79.629066
3429000000 -28.740168 37.624496 -35.516365 -178.35834 11.831572 -176.04781 -21.181097 -86.88591
3430000000 -28.636547 31.511406 -35.532951 174.54642 11.839114 176.81618 -21.110428 -94.323563
3431000000 -28.557339 25.63571 -35.52216 167.38577 11.83301 169.69771 -21.061411 -101.72323
3432000000 -28.478355 19.737957 -35.537144 160.36229 11.829464 162.57515 -21.027712 -109.0551
3433000000 -28.484547 13.831469 -35.531647 153.17062 11.827694 155.4632 -20.999821 -116.3349
3434000000 -28.397545 7.7633572 -35.532387 145.97734 11.829811 148.33957 -20.974529 -123.69851
3435000000 -28.441917 2.1165309 -35.558414 139.02505 11.819665 141.23248 -20.924772 -131.02785
3436000000 -28.433704 -3.8418448 -35.550907 131.97101 11.821429 134.09138 -20.874235 -138.60455
3437000000 -28.483856 -9.8293352 -35.537247 124.80642 11.821754 126.99975 -20.826046 -145.82671
3438000000 -28.60256 -15.487386 -35.548592 117.72729 11.818495 119.90005 -20.770023 -153.74532
3439000000 -28.746799 -21.17091 -35.567574 110.6237 11.813054 112.7654 -20.76001 -160.9646
3440000000 -28.788212 -26.553217 -35.575657 103.58963 11.816469 105.65578 -20.648294 -168.54944
3441000000 -28.92136 -32.399452 -35.575443 96.441002 11.814324 98.568207 -20.605753 -176.18073
3442000000 -29.118536 -37.745346 -35.577507 89.362442 11.808889 91.439659 -20.509558 176.48253
3443000000 -29.298542 -43.614311 -35.571381 82.216141 11.810059 84.348396 -20.41604 169.02873
3444000000 -29.493769 -49.154251 -35.579712 75.220474 11.801732 77.242638 -20.331202 161.62555
3445000000 -29.754063 -55.593021 -35.59095 68.055801 11.807725 70.143211 -20.230997 154.21562
3446000000 -29.861382 -61.312054 -35.608128 61.023281 11.798038 63.021973 -20.130495 146.76062
3447000000 -30.280535 -67.310158 -35.610874 53.924294 11.795287 55.95034 -20.018978 139.59917
3448000000 -30.563633 -73.371468 -35.608368 46.960705 11.79465 48.832523 -19.883255 132.28235
3449000000 -30.91396 -78.940742 -35.618076 39.786129 11.790151 41.76672 -19.769495 125.05145
3450000000 -31.168209 -85.060715 -35.633572 32.703587 11.793118 34.649456 -19.612898 118.05314
3451000000 -31.515579 -91.094551 -35.616302 25.604338 11.787313 27.544851 -19.488195 111.0564
3452000000 -31.880684 -97.54657 -35.635281 18.582655 11.791538 20.44776 -19.366947 103.93993
3453000000 -32.222839 -103.23436 -35.628323 11.465503 11.78839 13.358628 -19.226984 97.245293
3454000000 -32.678974 -110.16043 -35.629017 4.4379878 11.786829 6.3222494 -19.108242 90.449257
3455000000 -33.044636 -117.00687 -35.63739 -2.6480069 11.782836 -0.82548004 -19.009537 83.778015
3456000000 -33.428791 -123.19878 -35.636398 -9.726368 11.78464 -7.9099712 -18.870764 77.095535
3457000000 -33.770641 -130.34499 -35.645329 -16.83497 11.780782 -15.004175 -18.76696 70.551132
3458000000 -34.192764 -136.45789 -35.650467 -23.676069 11.784683 -22.064976 -18.657778 63.985863
3459000000 -34.522564 -143.86967 -35.643429 -30.862934 11.78072 -29.146542 -18.565973 57.592094
3460000000 -34.841858 -150.97134 -35.653065 -37.972717 11.778743 -36.219547 -18.490889 51.250034
3461000000 -35.221992 -158.71214 -35.647572 -44.974194 11.78006 -43.332504 -18.433502 45.051853
3462000000 -35.390594 -166.4055 -35.633308 -52.19236 11.781411 -50.437218 -18.382336 38.657692
3463000000 -35.70348 -174.42531 -35.641842 -59.177948 11.784293 -57.502518 -18.337845 32.490635
3464000000 -35.950108 177.71854 -35.653362 -66.121017 11.785048 -64.576111 -18.31856 26.29191
3465000000 -35.81715 170.4062 -35.642002 -73.187439 11.786295 -71.661263 -18.314062 20.300203
3466000000 -36.004929 161.81277 -35.645103 -80.321716 11.790962 -78.756607 -18.31201 13.986281
3467000000 -35.830997 154.86678 -35.653599 -87.285683 11.78942 -85.848915 -18.365833 7.9799304
3468000000 -35.740528 145.7224 -35.650761 -94.387383 11.795141 -92.916939 -18.39147 1.7706276
3469000000 -35.572758 138.7003 -35.639454 -101.50832 11.798922 -100.01983 -18.483166 -4.1991715
3470000000 -35.305962 130.81122 -35.637569 -108.59579 11.797454 -107.12415 -18.548086 -10.319025
3471000000 -34.88998 122.95507 -35.634235 -115.69327 11.804097 -114.19485 -18.640213 -16.388878
3472000000 -34.648178 115.89294 -35.643456 -122.70846 11.808336 -121.31458 -18.770332 -22.510529
3473000000 -34.302242 109.20364 -35.637028 -129.71738 11.812042 -128.41327 -18.94875 -28.5595
3474000000 -33.866558 102.2337 -35.63522 -136.79211 11.817281 -135.48473 -19.104702 -34.728695
3475000000 -33.569607 96.341614 -35.602642 -144.0179 11.822241 -142.62128 -19.315996 -41.087887
3476000000 -33.165436 89.715103 -35.62738 -151.00673 11.826608 -149.71248 -19.530926 -47.12801
3477000000 -32.716347 83.542908 -35.606457 -158.15268 11.82871 -156.82903 -19.785563 -53.487125
3478000000 -32.261723 77.22847 -35.62104 -165.31097 11.831482 -163.95413 -20.073973 -59.948235
3479000000 -31.939341 70.452675 -35.597122 -172.32408 11.837825 -171.06027 -20.394009 -66.551559
3480000000 -31.494505 65.214233 -35.604836 -179.48743 11.842182 -178.17224 -20.710112 -73.11879
3481000000 -31.125687 59.497566 -35.606213 173.36374 11.84709 174.7084 -21.108334 -79.997543
3482000000 -30.810869 53.588402 -35.599148 166.27524 11.851442 167.61116 -21.483816 -87.032333
3483000000 -30.511414 47.478981 -35.59037 159.18961 11.855254 160.4706 -21.92272 -94.28904
3484000000 -30.244179 41.6647 -35.596523 152.09099 11.860982 153.33591 -22.358513 -101.66664
3485000000 -29.98333 35.636856 -35.591511 144.92952 11.860818 146.20068 -22.88019 -109.95875
3486000000 -29.691563 30.184973 -35.593185 137.7648 11.860111 139.09076 -23.34779 -118.30037
3487000000 -29.514809 24.344122 -35.572517 130.72536 11.864404 131.91591 -23.894995 -127.15823
3488000000 -29.380575 18.385365 -35.588844 123.49221 11.867749 124.78886 -24.442097 -136.50731
3489000000 -29.171955 12.796968 -35.596638 116.42746 11.872019 117.67159 -25.004213 -146.85132
3490000000 -29.073391 7.3085656 -35.59417 109.22127 11.871218 110.54084 -25.390999 -157.67101
3491000000 -29.007128 1.2161604 -35.584126 102.07812 11.873839 103.3896 -25.803328 -169.73793
3492000000 -28.927788 -4.9984818 -35.594234 94.978752 11.870842 96.252884 -26.071056 178.30893
3493000000 -28.909103 -10.610479 -35.587826 87.871681 11.872443 89.094963 -26.180277 165.70616
3494000000 -28.91737 -15.779725 -35.590626 80.731247 11.872039 81.970024 -26.143732 152.93065
3495000000 -29.034473 -21.766249 -35.611912 73.549835 11.866414 74.806602 -25.940678 139.78571
3496000000 -29.034546 -28.108868 -35.611889 66.407669 11.866794 67.688278 -25.589022 128.13147
3497000000 -29.206278 -33.444569 -35.623066 59.302925 11.867339 60.566547 -25.187424 116.05049
3498000000 -29.402164 -39.366398 -35.623428 52.2099 11.862325 53.415134 -24.619652 105.15185
3499000000 -29.570627 -45.396152 -35.624905 45.021988 11.855819 46.301357 -24.076397 95.421677
3500000000 -29.793344 -51.585407 -35.631477 37.940498 11.852057 39.173565 -23.514944 86.258942
3501000000 -30.056734 -57.335308 -35.645538 30.784781 11.845777 32.024437 -22.854481 77.41114
3502000000 -30.347574 -63.491432 -35.666908 23.651384 11.842416 24.900976 -22.340103 68.980309
3503000000 -30.688873 -69.304504 -35.671288 16.686028 11.839629 17.805399 -21.786919 61.337395
3504000000 -31.171921 -75.239868 -35.681614 9.4018793 11.833395 10.675034 -21.241533 54.008789
3505000000 -31.556244 -81.105659 -35.677727 2.3894863 11.829319 3.5625777 -20.771519 47.20385
3506000000 -31.954638 -87.088715 -35.689442 -4.8332214 11.825516 -3.52314 -20.319515 40.338646
3507000000 -32.584629 -94.195343 -35.726563 -11.834208 11.819934 -10.636522 -19.894838 33.837761
3508000000 -33.161144 -100.4907 -35.72551 -18.90563 11.814016 -17.736439 -19.470228 27.4354
3509000000 -33.655415 -105.97929 -35.733486 -25.98341 11.805389 -24.863386 -19.132353 21.269974
3510000000 -34.445702 -112.49044 -35.758064 -33.063049 11.802498 -31.932276 -18.783363 15.361944
3511000000 -35.104866 -118.65444 -35.767143 -40.141144 11.796689 -39.006081 -18.484674 9.4905176
3512000000 -35.881943 -125.6759 -35.760414 -47.187435 11.792706 -46.100197 -18.230843 3.7294064
3513000000 -36.712677 -132.56728 -35.787407 -54.283302 11.783238 -53.190639 -17.953108 -2.1173413
3514000000 -37.535141 -138.76599 -35.799297 -61.230282 11.78398 -60.25684 -17.757587 -7.655498
3515000000 -38.242737 -147.60727 -35.819878 -68.353241 11.777662 -67.337601 -17.543449 -13.22875
3516000000 -39.221424 -155.23134 -35.813251 -75.376579 11.774722 -74.402298 -17.374899 -18.811544
3517000000 -40.123997 -163.34164 -35.831486 -82.331947 11.771915 -81.459045 -17.218987 -24.260633
3518000000 -40.878136 -169.54047 -35.838814 -89.437904 11.772181 -88.525383 -17.081371 -29.726202
3519000000 -41.719639 177.4856 -35.853409 -96.341331 11.770707 -95.605019 -16.977222 -35.221722
3520000000 -42.102608 170.77405 -35.854252 -103.40079 11.768248 -102.67522 -16.903791 -40.615849
3521000000 -42.869659 163.82315 -35.867115 -110.38223 11.767159 -109.7163 -16.82498 -46.13961
3522000000 -43.21508 150.36125 -35.868099 -117.37756 11.764019 -116.79694 -16.788609 -51.59811
3523000000 -43.710804 143.38463 -35.882339 -124.33017 11.768006 -123.84943 -16.764822 -56.949062
3524000000 -43.280373 133.62796 -35.878593 -131.3587 11.772704 -130.912 -16.760839 -62.379566
3525000000 -43.15934 123.59268 -35.88166 -138.48988 11.774348 -137.97348 -16.801527 -67.900665
3526000000 -42.95702 116.16676 -35.889469 -145.35423 11.780975 -145.0466 -16.826054 -73.34288
3527000000 -42.39209 109.30364 -35.866936 -152.36838 11.779682 -152.09189 -16.89909 -78.9608
3528000000 -41.97739 102.00853 -35.874226 -159.39935 11.782486 -159.19545 -16.981512 -84.349586
3529000000 -41.338207 97.743935 -35.892609 -166.43161 11.789344 -166.27443 -17.078823 -90.044998
3530000000 -40.746696 92.894745 -35.8703 -173.37122 11.790532 -173.32724 -17.223206 -95.782333
3531000000 -40.082188 86.744629 -35.867504 179.5993 11.797725 179.59499 -17.377716 -101.39674
3532000000 -39.333748 80.962883 -35.850834 172.50719 11.803295 172.49255 -17.536076 -107.169
3533000000 -38.734951 77.372177 -35.857983 165.48396 11.807987 165.42639 -17.732868 -112.99191
3534000000 -38.041245 71.280861 -35.847244 158.48923 11.813287 158.33788 -17.954525 -119.11494
3535000000 -37.279007 65.400345 -35.843075 151.50465 11.819791 151.25267 -18.197062 -125.13352
3536000000 -36.849438 61.959599 -35.835842 144.51096 11.825305 144.16948 -18.447895 -131.30183
3537000000 -36.258953 55.132607 -35.827221 137.3131 11.835032 137.06584 -18.738966 -137.53192
3538000000 -35.633801 51.649612 -35.813 130.32811 11.841186 129.94843 -19.058941 -144.15407
3539000000 -35.111504 47.39492 -35.812347 123.34693 11.845232 122.84219 -19.370863 -150.64304
3540000000 -34.67065 42.185001 -35.80468 116.13187 11.852698 115.75465 -19.719875 -157.47694
3541000000 -34.177937 36.47266 -35.79121 109.06699 11.854829 108.64782 -20.079975 -164.49327
3542000000 -33.783787 31.888206 -35.782726 102.1125 11.862792 101.52846 -20.48732 -171.9259
3543000000 -33.458035 26.995461 -35.778439 94.939285 11.869792 94.413162 -20.856743 -179.28056
3544000000 -33.127769 21.423563 -35.760784 87.897087 11.871099 87.280273 -21.281137 172.61247
3545000000 -32.733204 15.883395 -35.749737 80.854027 11.879896 80.154739 -21.682308 164.26787
3546000000 -32.447887 10.987055 -35.760136 73.679848 11.88588 73.044891 -22.064516 155.60228
3547000000 -32.352726 5.5329299 -35.748764 66.720673 11.891252 65.9076 -22.475252 146.67545
3548000000 -32.114937 1.1169399 -35.735958 59.650719 11.892062 58.77927 -22.802147 136.86282
3549000000 -32.020123 -4.4108415 -35.711296 52.496101 11.897848 51.673592 -23.10718 127.24942
3550000000 -31.910854 -10.185438 -35.714966 45.415924 11.898321 44.545654 -23.380152 116.9296
3551000000 -31.780159 -14.913677 -35.714016 38.274605 11.901164 37.399559 -23.560341 106.89787
3552000000 -31.825853 -20.354038 -35.737926 31.054735 11.905776 30.247719 -23.654106 95.926552
3553000000 -31.841446 -25.537985 -35.714573 24.054865 11.908344 23.131018 -23.667059 84.756477
3554000000 -31.945272 -30.639048 -35.709488 17.01153 11.909794 16.008694 -23.626188 74.479279
3555000000 -32.014778 -35.803238 -35.702785 9.817173 11.910215 8.8439016 -23.479183 63.957176
3556000000 -32.145252 -41.409054 -35.70232 2.8077137 11.90903 1.7242504 -23.259714 53.540131
3557000000 -32.301113 -46.291595 -35.702255 -4.3264375 11.913243 -5.4085107 -23.005493 43.752293
3558000000 -32.517136 -52.161526 -35.701771 -11.509471 11.907833 -12.535239 -22.740187 34.195148
3559000000 -32.700718 -57.835781 -35.695526 -18.600456 11.91189 -19.659286 -22.4076 25.073328
3560000000 -32.95517 -62.86705 -35.704048 -25.632801 11.910881 -26.797832 -22.051052 16.428423
3561000000 -33.305386 -67.372726 -35.707008 -32.75491 11.911785 -33.918728 -21.722185 7.8746219
3562000000 -33.53183 -72.898972 -35.693165 -39.844212 11.909604 -41.055553 -21.372223 -0.15770221
3563000000 -33.886509 -78.60051 -35.695724 -47.008873 11.908237 -48.179325 -21.075861 -8.1940289
3564000000 -34.459827 -83.887329 -35.707802 -54.117725 11.907105 -55.287724 -20.78787 -15.557573
3565000000 -34.818493 -89.156647 -35.702782 -61.212284 11.902726 -62.42437 -20.479786 -23.185827
3566000000 -35.411419 -95.331352 -35.705177 -68.251961 11.900848 -69.520439 -20.193684 -30.193979
3567000000 -35.841602 -99.996933 -35.714005 -75.430367 11.902687 -76.626076 -19.928411 -37.378403
3568000000 -36.391476 -106.50661 -35.710014 -82.502464 11.899227 -83.774414 -19.699171 -44.426022
3569000000 -37.165699 -112.24053 -35.701363 -89.694595 11.897041 -90.86866 -19.489532 -51.172119
3570000000 -37.8097 -116.93033 -35.690804 -96.654335 11.896302 -97.989281 -19.268127 -57.944149
3571000000 -38.398411 -124.3155 -35.711681 -103.74804 11.891759 -105.09336 -19.105656 -64.619644
3572000000 -38.994415 -129.03862 -35.704758 -110.9559 11.892056 -112.19305 -18.956781 -71.291267
3573000000 -39.916126 -135.70139 -35.714581 -118.02367 11.886452 -119.31911 -18.81477 -77.844795
3574000000 -40.533749 -143.88954 -35.702717 -125.00622 11.887507 -126.42152 -18.699438 -84.390678
3575000000 -41.462097 -152.75015 -35.71841 -132.21005 11.887131 -133.51573 -18.616905 -90.963387
3576000000 -42.170315 -157.87636 -35.714424 -139.17644 11.882358 -140.63986 -18.524006 -97.518135
3577000000 -42.932892 -170.04179 -35.711819 -146.29681 11.881199 -147.72055 -18.460258 -103.94673
3578000000 -43.811897 179.74977 -35.717716 -153.40135 11.883526 -154.83011 -18.412237 -110.41164
3579000000 -44.455509 170.72754 -35.722351 -160.4989 11.87469 -161.94228 -18.381393 -117.03284
3580000000 -44.517185 157.35291 -35.711086 -167.56935 11.879365 -169.03828 -18.376547 -123.43926
3581000000 -44.934013 144.05235 -35.73378 -174.67451 11.877973 -176.1058 -18.364756 -130.06894
3582000000 -44.546368 134.33411 -35.72525 178.31055 11.872941 176.76082 -18.362911 -136.61774
3583000000 -44.479649 123.3021 -35.722858 171.18704 11.873984 169.70384 -18.380178 -143.02614
3584000000 -44.128147 110.4849 -35.726597 164.1035 11.87107 162.61166 -18.414606 -149.91762
3585000000 -43.954411 103.29298 -35.719429 157.12218 11.872477 155.50444 -18.463976 -156.43245
3586000000 -42.897873 93.534248 -35.716175 150.00465 11.875177 148.42578 -18.512585 -163.30867
3587000000 -42.990139 87.721588 -35.728447 142.76331 11.876163 141.30884 -18.572329 -169.97871
3588000000 -41.744694 81.237106 -35.733444 135.78474 11.871014 134.21916 -18.644152 -176.89932
3589000000 -41.496468 74.276321 -35.726185 128.71854 11.875823 127.12157 -18.726126 176.36417
3590000000 -40.589916 68.708389 -35.724781 121.63269 11.872648 120.04279 -18.806814 169.36835
3591000000 -40.008213 62.879967 -35.725201 114.60689 11.870102 112.9642 -18.872431 162.31194
3592000000 -39.442131 58.999954 -35.719563 107.57915 11.873441 105.87075 -18.962893 155.35289
3593000000 -39.185284 55.12537 -35.743156 100.40411 11.873846 98.782402 -19.033724 148.22047
3594000000 -38.782272 49.742695 -35.723045 93.442764 11.876613 91.679428 -19.088837 141.10031
3595000000 -38.135647 45.132751 -35.715801 86.303116 11.877609 84.58194 -19.178484 133.91154
3596000000 -37.916344 41.451157 -35.723274 79.161316 11.878231 77.472572 -19.264988 126.71413
3597000000 -37.258102 36.789471 -35.717453 72.137794 11.881675 70.385933 -19.340319 119.36809
3598000000 -37.014622 33.964832 -35.715431 65.040993 11.881162 63.310158 -19.405466 112.08755
3599000000 -36.589233 29.834833 -35.718903 57.970158 11.886399 56.221577 -19.458904 104.85035
3600000000 -36.290421 26.072084 -35.721481 50.961285 11.889246 49.129177 -19.529036 97.484451
3601000000 -35.929981 20.468689 -35.711933 43.877487 11.887812 42.006001 -19.573721 90.195374
3602000000 -35.660774 17.362993 -35.720356 36.824509 11.891623 34.938667 -19.619013 82.719765
3603000000 -35.623928 13.463328 -35.708385 29.739044 11.891767 27.842648 -19.652782 75.547348
3604000000 -35.352715 8.924962 -35.709843 22.615915 11.892476 20.739134 -19.698994 68.161446
3605000000 -35.115822 5.6307616 -35.720982 15.567052 11.896846 13.637281 -19.728071 60.916626
3606000000 -34.808285 0.13747077 -35.71793 8.5792866 11.899832 6.5411468 -19.781368 53.40633
3607000000 -34.741322 -3.7350016 -35.707233 1.4369841 11.905541 -0.54145932 -19.818331 46.134998
3608000000 -34.454056 -7.3223104 -35.701439 -5.6627164 11.907034 -7.6531706 -19.858637 38.765846
3609000000 -34.51479 -12.686266 -35.703308 -12.669669 11.9073 -14.763736 -19.893774 31.405657
3610000000 -34.285477 -16.686024 -35.68819 -19.744499 11.915597 -21.845579 -19.927143 24.301661
3611000000 -34.324051 -22.13591 -35.69791 -26.933352 11.915459 -28.962158 -19.95989 16.905437
3612000000 -34.417797 -26.673418 -35.691502 -34.01754 11.916018 -36.059879 -20.009096 9.7196646
3613000000 -34.334679 -31.441957 -35.683681 -41.064095 11.919378 -43.166374 -20.072206 2.3058145
3614000000 -34.25716 -35.762543 -35.691296 -48.210514 11.923848 -50.265823 -20.120285 -4.9491677
3615000000 -34.456589 -41.104214 -35.680382 -55.280712 11.926649 -57.394695 -20.19763 -12.27606
3616000000 -34.674656 -45.622528 -35.677883 -62.421638 11.931329 -64.486343 -20.274059 -19.521173
3617000000 -34.794544 -51.332901 -35.668583 -69.529015 11.932676 -71.612679 -20.35865 -27.090738
3618000000 -34.934837 -55.39534 -35.664143 -76.594505 11.939586 -78.694542 -20.435839 -34.645317
3619000000 -35.193871 -61.33725 -35.673805 -83.605934 11.938251 -85.836388 -20.54838 -41.956264
3620000000 -35.325314 -66.633102 -35.664501 -90.780861 11.941427 -92.956528 -20.658911 -49.786606
3621000000 -35.709503 -71.215263 -35.665867 -97.838715 11.945026 -100.05186 -20.76926 -57.242691
3622000000 -36.268215 -77.367188 -35.667107 -105.00878 11.948502 -107.20109 -20.895149 -65.127167
3623000000 -36.616184 -82.890442 -35.666908 -112.1367 11.955328 -114.28902 -21.010628 -73.027901
3624000000 -37.090366 -87.983154 -35.650505 -119.30114 11.954557 -121.43199 -21.131731 -81.215004
3625000000 -37.538944 -94.759544 -35.664852 -126.362 11.955203 -128.57027 -21.28545 -89.145653
3626000000 -38.157349 -99.292732 -35.665138 -133.44385 11.956698 -135.69919 -21.40587 -97.742119
3627000000 -38.934776 -103.55298 -35.648869 -140.46193 11.959854 -142.791 -21.520834 -106.1652
3628000000 -39.624611 -111.56709 -35.657639 -147.67325 11.959988 -149.94795 -21.643475 -114.75504
3629000000 -40.339798 -118.65283 -35.672447 -154.73073 11.956026 -157.08031 -21.715519 -123.59764
3630000000 -41.272717 -123.91936 -35.654297 -161.82362 11.961758 -164.21127 -21.793097 -132.45891
3631000000 -42.207397 -133.02098 -35.653263 -168.98837 11.961084 -171.34537 -21.869139 -141.58171
3632000000 -43.203964 -138.35284 -35.656811 -176.13165 11.957261 -178.44815 -21.879681 -150.61961
3633000000 -44.817413 -145.63437 -35.669079 176.79895 11.96342 174.41777 -21.881092 -159.81009
3634000000 -46.026817 -153.64882 -35.657837 169.71764 11.963333 167.28859 -21.818497 -169.05067
3635000000 -47.883003 -164.55765 -35.66172 162.45914 11.958396 160.17308 -21.768915 -177.89096
3636000000 -49.666462 -174.82333 -35.678505 155.48766 11.953876 153.06172 -21.655037 172.78473
3637000000 -51.81892 176.6812 -35.672489 148.42279 11.956881 145.89882 -21.530191 163.72079
3638000000 -54.239998 155.30853 -35.678627 141.20934 11.951677 138.77335 -21.371763 154.88255
3639000000 -55.060459 130.22639 -35.685978 134.12253 11.945357 131.67709 -21.155354 146.22513
3640000000 -56.57832 102.4994 -35.674328 127.02705 11.948812 124.54608 -20.979158 137.67169
3641000000 -55.906086 74.240707 -35.686977 119.91251 11.942482 117.41993 -20.735559 129.22757
3642000000 -53.930542 61.051613 -35.684528 112.77798 11.938703 110.32154 -20.510565 120.98123
3643000000 -54.587421 45.141914 -35.697742 105.76753 11.931554 103.22358 -20.271296 113.39217
3644000000 -53.346531 37.79908 -35.698128 98.741867 11.933646 96.105309 -20.013412 105.30809
3645000000 -52.946373 24.223507 -35.714657 91.643837 11.927951 89.012131 -19.76778 97.955994
3646000000 -52.365398 22.122269 -35.706429 84.502495 11.925743 81.901978 -19.505238 90.522652
3647000000 -51.958176 23.690159 -35.706547 77.438126 11.920201 74.792732 -19.260452 83.265381
3648000000 -51.69088 15.988832 -35.718761 70.36554 11.913968 67.699867 -19.02284 76.168198
3649000000 -52.353642 13.201254 -35.755447 63.290768 11.909311 60.613518 -18.787016 69.394661
3650000000 -51.834354 17.904987 -35.724762 56.282162 11.907227 53.504883 -18.567711 62.689915
3651000000 -53.45084 24.12361 -35.737888 49.218403 11.902195 46.432468 -18.370899 56.105076
3652000000 -53.15123 28.859226 -35.752953 42.0905 11.903428 39.367832 -18.161709 49.765285
3653000000 -52.989872 30.176661 -35.740467 35.00684 11.894796 32.299988 -17.989773 43.46566
3654000000 -51.232536 46.929123 -35.745777 27.958561 11.894705 25.204576 -17.82091 37.186344
3655000000 -50.939152 51.365395 -35.760399 20.824167 11.89278 18.130907 -17.667297 30.997042
3656000000 -48.632576 47.6073 -35.752102 13.830009 11.894101 11.033158 -17.52129 24.980556
3657000000 -47.672421 54.24905 -35.753891 6.7178893 11.887519 3.977144 -17.399115 19.128511
3658000000 -46.271221 49.405445 -35.763035 -0.24049248 11.890432 -3.090095 -17.313856 13.175451
3659000000 -45.176586 44.851898 -35.764076 -7.2810535 11.886333 -10.149312 -17.206076 7.4484053
3660000000 -43.76873 43.412502 -35.767559 -14.411686 11.889461 -17.239243 -17.147738 1.62123
3661000000 -43.007233 40.915474 -35.749496 -21.414185 11.892241 -24.313444 -17.103659 -4.0848594
3662000000 -42.493546 36.172672 -35.762592 -28.420753 11.889921 -31.352077 -17.065372 -9.7532177
3663000000 -41.692932 30.627872 -35.763618 -35.541409 11.890576 -38.429775 -17.056219 -15.452294
3664000000 -41.030586 26.385786 -35.764355 -42.504555 11.894423 -45.493027 -17.063107 -21.127254
3665000000 -40.205112 19.904839 -35.758629 -49.665791 11.897535 -52.566772 -17.078615 -26.637165
3666000000 -39.947277 14.602571 -35.750816 -56.668701 11.900544 -59.667625 -17.114769 -32.242306
3667000000 -39.562851 7.7463312 -35.754002 -63.761284 11.904599 -66.728752 -17.17749 -37.919968
3668000000 -39.295258 3.1520994 -35.742603 -70.818413 11.906481 -73.784866 -17.267958 -43.44368
3669000000 -38.873737 -2.0010839 -35.749401 -77.901802 11.912037 -80.875923 -17.383034 -49.219284
3670000000 -38.731865 -8.66646 -35.747864 -84.888618 11.919044 -87.910599 -17.527693 -54.763428
3671000000 -38.516792 -14.268825 -35.73978 -92.113174 11.920568 -95.040298 -17.689806 -60.420956
3672000000 -38.602608 -20.857044 -35.729485 -99.111015 11.931806 -102.10895 -17.873634 -66.164551
3673000000 -38.714069 -26.631119 -35.730453 -106.16649 11.934653 -109.22337 -18.086081 -72.010033
3674000000 -38.654652 -34.281334 -35.716488 -113.2655 11.94242 -116.2832 -18.361923 -77.801529
3675000000 -39.065052 -38.004852 -35.711567 -120.19965 11.949951 -123.38811 -18.604534 -83.74482
3676000000 -39.356457 -47.700916 -35.724663 -127.36794 11.955453 -130.50006 -18.921741 -89.79467
3677000000 -39.606655 -53.273468 -35.695923 -134.46817 11.96209 -137.58118 -19.274214 -95.903831
3678000000 -39.76804 -61.526073 -35.693192 -141.60114 11.968554 -144.69495 -19.629671 -102.09017
3679000000 -40.489155 -66.928276 -35.674118 -148.60675 11.977108 -151.83202 -20.039877 -108.75231
3680000000 -41.124748 -74.781143 -35.687611 -155.76984 11.983028 -158.91998 -20.525412 -115.24677
3681000000 -41.594982 -82.384979 -35.67506 -162.81892 11.991755 -166.04814 -21.000591 -122.50278
3682000000 -42.055397 -92.457535 -35.68203 -170.00745 11.99577 -173.16095 -21.555986 -129.68192
3683000000 -43.182858 -99.355705 -35.66296 -177.11087 12.001815 179.68275 -22.090284 -137.28322
3684000000 -44.483822 -110.95805 -35.675816 175.8264 12.005071 172.58575 -22.687878 -145.33635
3685000000 -45.651173 -121.05694 -35.667828 168.69421 12.011073 165.42459 -23.362381 -154.12378
3686000000 -47.380825 -135.19446 -35.656475 161.54312 12.015563 158.30777 -24.061575 -163.39551
3687000000 -48.579422 -146.41823 -35.677109 154.44061 12.017961 151.14514 -24.727951 -173.55423
3688000000 -49.905964 -167.01608 -35.667519 147.3501 12.025083 144.01947 -25.415407 175.15312
3689000000 -51.353577 164.89192 -35.672131 140.30507 12.023499 136.89352 -25.996794 163.14488
3690000000 -51.873547 138.51828 -35.663006 133.12302 12.024037 129.74301 -26.46036 149.43082
3691000000 -51.088577 112.28587 -35.651436 126.04115 12.023896 122.58141 -26.777119 135.48952
3692000000 -50.252644 93.462433 -35.655235 118.86098 12.030674 115.45609 -26.849512 120.87603
3693000000 -48.375042 76.926689 -35.669853 111.72605 12.023327 108.29079 -26.733343 106.57001
3694000000 -47.569164 68.358002 -35.665524 104.67002 12.028531 101.15505 -26.352272 92.958763
3695000000 -46.279369 53.297447 -35.660774 97.481277 12.027219 94.009987 -25.813263 80.116135
3696000000 -45.112991 46.131771 -35.682426 90.394997 12.02407 86.878296 -25.177071 68.213615
3697000000 -44.60606 36.272377 -35.657444 83.246162 12.024278 79.732231 -24.517923 57.410362
3698000000 -44.418743 26.908915 -35.678329 76.060944 12.019069 72.624702 -23.857964 47.859283
3699000000 -43.785858 20.521088 -35.673603 68.999557 12.020055 65.502434 -23.209053 38.843544
3700000000 -43.288734 15.167306 -35.68211 61.921917 12.015396 58.362637 -22.558025 30.515841
3701000000 -43.526089 6.9007411 -35.676697 54.785854 12.008045 51.229065 -21.927582 22.6901
3702000000 -43.580681 -1.238377 -35.682747 47.677982 12.002329 44.081005 -21.373323 15.218114
3703000000 -44.130684 -4.9314475 -35.687244 40.604687 12.001065 36.980011 -20.881147 8.3796911
3704000000 -44.125099 -12.275671 -35.706951 33.47686 11.992841 29.883898 -20.41477 1.4911309
3705000000 -44.615849 -18.338112 -35.704456 26.399946 11.989488 22.768833 -19.97942 -4.8330998
3706000000 -45.391708 -19.260294 -35.710884 19.396942 11.988168 15.659222 -19.583027 -10.982562
3707000000 -46.559002 -27.008904 -35.702316 12.208443 11.980684 8.569272 -19.188936 -17.269459
3708000000 -47.282307 -29.967709 -35.720566 5.1591539 11.97181 1.4572048 -18.876795 -23.15324
3709000000 -50.135017 -32.441372 -35.733215 -1.924978 11.973297 -5.610363 -18.548555 -29.04397
3710000000 -51.150776 -30.975878 -35.740391 -8.9817343 11.968831 -12.733324 -18.278172 -34.694023
3711000000 -53.700432 -23.918236 -35.737968 -16.014322 11.96296 -19.82325 -18.053034 -40.49881
3712000000 -57.688946 -1.9315023 -35.729538 -23.179735 11.960669 -26.893715 -17.836437 -46.009354
3713000000 -58.846432 24.857899 -35.751762 -30.268932 11.954207 -34.012493 -17.651855 -51.415791
3714000000 -54.417187 41.490841 -35.756569 -37.225014 11.950772 -41.056911 -17.481169 -57.076359
3715000000 -51.328217 61.766254 -35.756626 -44.33707 11.950011 -48.123837 -17.349106 -62.497822
3716000000 -49.330616 64.784973 -35.777321 -51.419064 11.949807 -55.20583 -17.240026 -68.014534
3717000000 -46.345802 61.095837 -35.769501 -58.507805 11.946511 -62.303238 -17.136341 -73.476265
3718000000 -45.410313 54.806667 -35.76577 -65.469444 11.951447 -69.378654 -17.057909 -78.836807
3719000000 -43.862068 57.324974 -35.773571 -72.533249 11.945117 -76.43605 -17.020884 -84.246536
3720000000 -42.882797 51.281673 -35.771709 -79.668343 11.944742 -83.487503 -16.985262 -89.677055
3721000000 -42.067303 48.324142 -35.790165 -86.703178 11.939773 -90.544983 -17.009634 -95.262169
3722000000 -40.889393 41.791546 -35.781521 -93.80835 11.943657 -97.631439 -17.022684 -100.74918
3723000000 -40.263523 37.636082 -35.784615 -100.81919 11.947035 -104.71931 -17.032146 -106.24496
3724000000 -39.896839 30.356688 -35.776882 -107.89365 11.946782 -111.76859 -17.094883 -111.77009
3725000000 -39.428875 27.992678 -35.777756 -114.88029 11.948661 -118.83777 -17.171148 -117.44875
3726000000 -38.767231 22.576042 -35.778847 -121.84586 11.950667 -125.91688 -17.279921 -123.11253
3727000000 -38.49176 15.991611 -35.770618 -129.00504 11.95163 -133.00539 -17.41312 -128.68025
3728000000 -38.503536 11.756044 -35.776463 -136.13205 11.961319 -140.0666 -17.534679 -134.67313
3729000000 -38.152367 7.8109746 -35.773659 -143.14711 11.958459 -147.16234 -17.700823 -140.53572
3730000000 -38.190533 3.1009033 -35.770992 -150.23126 11.966172 -154.23712 -17.899897 -146.47398
3731000000 -38.278622 -3.5429046 -35.759064 -157.22308 11.968972 -161.30484 -18.092575 -152.49924
3732000000 -38.129406 -6.7595558 -35.76516 -164.29024 11.971504 -168.43044 -18.320213 -158.57906
3733000000 -38.327251 -11.687454 -35.759972 -171.4774 11.979569 -175.50581 -18.546257 -164.88525
3734000000 -38.59856 -15.589205 -35.749622 -178.43759 11.983919 177.44978 -18.820982 -171.2243
3735000000 -38.713379 -19.395876 -35.743683 174.42548 11.992039 170.33034 -19.11702 -177.76563
3736000000 -38.907684 -23.099422 -35.744175 167.38828 11.996941 163.25194 -19.41641 175.56223
3737000000 -39.483116 -27.350737 -35.735744 160.39212 11.996892 156.15349 -19.718481 168.66118
3738000000 -39.948071 -32.894405 -35.739666 153.14619 12.005309 149.02466 -20.061844 161.56819
3739000000 -40.320168 -34.137211 -35.736748 146.14641 12.010268 141.94376 -20.405453 154.39369
3740000000 -41.012875 -37.419392 -35.73201 139.14615 12.013006 134.85117 -20.791479 147.08607
3741000000 -41.421452 -38.813423 -35.730511 132.00311 12.019873 127.71999 -21.140842 139.30206
3742000000 -41.871731 -41.967167 -35.726059 124.79069 12.021816 120.59397 -21.544748 131.22127
3743000000 -42.871517 -41.066399 -35.716682 117.84418 12.029113 113.49818 -21.911694 122.93269
3744000000 -43.121307 -42.985748 -35.726154 110.71283 12.034402 106.35652 -22.291708 114.39502
3745000000 -43.906525 -41.796345 -35.706425 103.49372 12.040056 99.273544 -22.659248 105.6368
3746000000 -44.649384 -38.136665 -35.726879 96.460693 12.041432 92.137924 -23.014786 96.125282
3747000000 -44.586586 -40.027855 -35.71384 89.522728 12.05407 85.02919 -23.362398 86.752083
3748000000 -44.754486 -35.235043 -35.705914 82.266647 12.052072 77.893547 -23.650942 76.874763
3749000000 -45.121777 -31.84086 -35.702297 75.136276 12.051981 70.747719 -23.848875 67.065018
3750000000 -45.323956 -30.238071 -35.714993 68.090637 12.058949 63.654064 -24.073118 56.903728
3751000000 -44.971188 -29.57906 -35.699135 60.991997 12.060878 56.52663 -24.169289 46.248898
3752000000 -45.226826 -27.669641 -35.697845 53.80658 12.06386 49.404751 -24.236204 36.005474
3753000000 -44.881802 -27.958857 -35.697174 46.674271 12.06409 42.267334 -24.247988 25.851212
3754000000 -44.432388 -27.925909 -35.704361 39.639309 12.066464 35.159973 -24.249701 15.460829
3755000000 -43.919937 -31.429813 -35.698498 32.506927 12.070757 27.995573 -24.08144 5.417316
3756000000 -43.793285 -31.715492 -35.703671 25.463629 12.06989 20.933901 -23.963634 -4.3453188
3757000000 -43.876064 -34.044674 -35.705292 18.309841 12.066276 13.760849 -23.787205 -13.675506
3758000000 -43.495983 -36.075043 -35.699295 11.15698 12.067683 6.6376019 -23.535137 -23.342396
3759000000 -43.627274 -40.736275 -35.706398 4.029778 12.067277 -0.49386191 -23.350117 -32.204536
3760000000 -44.315575 -46.825932 -35.705685 -3.0034311 12.06901 -7.5938478 -23.108374 -41.040646
3761000000 -43.586639 -49.572155 -35.699791 -10.109404 12.068319 -14.753238 -22.805742 -49.597492
3762000000 -44.537357 -54.806816 -35.708633 -17.185843 12.068005 -21.87945 -22.580555 -57.695053
3763000000 -44.648228 -62.76017 -35.708847 -24.3584 12.06606 -29.01227 -22.373098 -65.880989
3764000000 -45.253006 -66.659035 -35.718563 -31.417995 12.069619 -36.120285 -22.14893 -74.021011
3765000000 -46.043308 -76.806305 -35.706139 -38.581364 12.069528 -43.234066 -21.887486 -81.590683
3766000000 -46.74017 -83.958588 -35.723366 -45.63673 12.063752 -50.34565 -21.662714 -89.432556
3767000000 -48.227215 -94.143814 -35.718647 -52.797028 12.064247 -57.469696 -21.493187 -97.046181
3768000000 -49.212231 -105.30758 -35.724621 -59.885899 12.058634 -64.598267 -21.276609 -104.39102
3769000000 -49.654945 -119.0576 -35.726673 -66.916695 12.061137 -71.73114 -21.081287 -111.55952
3770000000 -50.889668 -145.99147 -35.731033 -74.068703 12.056225 -78.833199 -20.917404 -119.06273
3771000000 -50.608875 -168.74194 -35.720623 -81.143982 12.056457 -85.928856 -20.723591 -126.15199
3772000000 -50.598831 172.55966 -35.73156 -88.233948 12.056756 -93.065689 -20.579941 -133.29559
3773000000 -49.283073 152.13278 -35.751671 -95.292969 12.051253 -100.17471 -20.429979 -140.52129
3774000000 -47.53643 135.06189 -35.744598 -102.30466 12.047996 -107.27121 -20.280762 -147.72578
3775000000 -46.347755 121.67546 -35.767399 -109.45892 12.046051 -114.38059 -20.140007 -154.68246
3776000000 -44.464497 108.52711 -35.764435 -116.628 12.04301 -121.47781 -19.986822 -161.8152
3777000000 -43.227749 101.25484 -35.75806 -123.65183 12.042028 -128.6028 -19.891987 -168.81383
3778000000 -42.289501 91.433418 -35.758041 -130.74612 12.036228 -135.69003 -19.750799 -175.87276
3779000000 -40.602192 85.832382 -35.766697 -137.95631 12.038685 -142.77815 -19.665485 177.00548
3780000000 -40.008827 79.270866 -35.775425 -144.93512 12.034359 -149.90344 -19.529228 170.09772
3781000000 -38.955986 69.59549 -35.771858 -152.00298 12.027277 -156.97345 -19.427629 163.05449
3782000000 -38.313164 64.036522 -35.778267 -159.06326 12.025012 -164.07785 -19.340635 155.84779
3783000000 -37.585213 57.712914 -35.78273 -166.19193 12.021832 -171.17145 -19.234882 149.07994
3784000000 -37.004955 51.937061 -35.779099 -173.19063 12.016539 -178.26994 -19.143406 142.09573
3785000000 -36.467419 46.439861 -35.796352 179.5891 12.019442 174.63849 -19.048235 135.18825
3786000000 -36.122906 41.039562 -35.793987 172.66357 12.019655 167.56883 -18.957331 128.2412
3787000000 -35.492264 34.72768 -35.793377 165.50839 12.015843 160.44824 -18.851881 121.26479
3788000000 -35.19294 29.440596 -35.799187 158.42955 12.010245 153.39484 -18.779175 114.57701
3789000000 -34.868092 24.042431 -35.796585 151.4705 12.01041 146.2753 -18.699789 107.69375
3790000000 -34.456196 18.276478 -35.807476 144.33806 12.012162 139.20969 -18.612625 100.98132
3791000000 -34.396297 13.2026 -35.811493 137.34328 12.006585 132.15419 -18.530157 94.295204
3792000000 -34.130604 7.8177605 -35.812347 130.21956 12.008777 125.05887 -18.462421 87.579414
3793000000 -34.087589 2.6388063 -35.820938 123.17697 12.005975 118.00834 -18.405062 81.032249
3794000000 -33.80912 -1.9981464 -35.817272 116.26948 12.008581 110.91824 -18.34075 74.456818
3795000000 -33.897785 -8.2434626 -35.824818 109.11232 12.008837 103.83993 -18.308685 67.90229
3796000000 -33.759789 -13.174662 -35.814575 102.05602 12.00973 96.767799 -18.272652 61.44986
3797000000 -33.771679 -17.881884 -35.819733 94.922829 12.013625 89.709946 -18.234606 54.988628
3798000000 -33.89167 -23.339243 -35.825451 87.840866 12.010044 82.600227 -18.218124 48.744778
3799000000 -34.048203 -26.946255 -35.821499 80.835136 12.014054 75.546768 -18.212347 42.460003
3800000000 -34.150402 -32.352448 -35.81559 73.810959 12.013521 68.470039 -18.228378 36.158928
3801000000 -34.32589 -37.141529 -35.81691 66.795845 12.016638 61.363808 -18.246763 29.987469
3802000000 -34.632046 -40.661247 -35.813343 59.716637 12.01692 54.328163 -18.284515 23.890545
3803000000 -34.782951 -45.990707 -35.811584 52.673588 12.020849 47.253933 -18.318312 17.776674
3804000000 -35.148476 -50.69479 -35.824398 45.600807 12.02547 40.175423 -18.373655 11.666036
3805000000 -35.349922 -55.077641 -35.816612 38.473618 12.030913 33.093201 -18.450209 5.6535206
3806000000 -35.797852 -57.855495 -35.805759 31.463936 12.035005 26.037289 -18.533403 -0.31200334
3807000000 -36.198887 -60.923828 -35.795456 24.387577 12.039913 18.923641 -18.661467 -6.5195899
3808000000 -36.693249 -64.458641 -35.782661 17.322119 12.046956 11.838533 -18.806343 -12.295742
3809000000 -37.107761 -68.848236 -35.789452 10.228347 12.05277 4.7445841 -18.91547 -18.529623
3810000000 -37.586037 -71.963997 -35.78323 3.1085942 12.057789 -2.3458285 -19.095549 -24.315289
3811000000 -38.289478 -75.20948 -35.772232 -3.9613364 12.060368 -9.4397173 -19.296373 -30.312527
3812000000 -38.524448 -76.600876 -35.777294 -11.063762 12.066978 -16.538429 -19.514166 -36.390854
3813000000 -39.219444 -80.636116 -35.769005 -18.134735 12.071607 -23.623432 -19.752422 -42.407608
3814000000 -39.578072 -81.642715 -35.765621 -25.107653 12.076729 -30.703682 -20.031477 -48.774952
3815000000 -39.949188 -84.110519 -35.759335 -32.282749 12.084405 -37.841389 -20.322849 -54.868195
3816000000 -39.981403 -84.797852 -35.756618 -39.397057 12.090375 -44.935982 -20.650875 -61.018875
3817000000 -40.328865 -88.601753 -35.754993 -46.516171 12.092764 -52.055958 -21.031155 -67.512558
3818000000 -40.919937 -91.425415 -35.748432 -53.486843 12.104711 -59.166023 -21.393318 -74.003548
3819000000 -40.899082 -94.015686 -35.739986 -60.53083 12.107401 -66.290901 -21.842388 -80.72332
3820000000 -41.174274 -99.324089 -35.752357 -67.710228 12.109112 -73.385872 -22.336637 -87.69651
3821000000 -40.92062 -102.81423 -35.745537 -74.829613 12.117283 -80.53949 -22.846151 -94.816223
3822000000 -41.246986 -108.70183 -35.734333 -82.03965 12.122525 -87.655518 -23.376492 -102.35079
3823000000 -41.352783 -114.67161 -35.742168 -89.079865 12.130696 -94.779541 -23.985266 -110.31223
3824000000 -41.099808 -120.18068 -35.715946 -96.260025 12.133985 -101.94727 -24.620211 -119.15421
3825000000 -41.277809 -128.80614 -35.720501 -103.35586 12.133824 -109.05322 -25.25448 -128.29291
3826000000 -41.156258 -137.12273 -35.733681 -110.45821 12.138533 -116.1951 -26.013912 -138.4341
3827000000 -41.102268 -147.2476 -35.725014 -117.63003 12.139754 -123.34505 -26.656797 -149.24294
3828000000 -40.951466 -155.24944 -35.726631 -124.65092 12.146361 -130.45543 -27.231098 -161.33057
3829000000 -40.62587 -165.7722 -35.722065 -131.85722 12.144488 -137.60225 -27.762857 -174.89259
3830000000 -40.536873 -175.83647 -35.731396 -138.96126 12.150605 -144.76822 -28.0641 171.1992
3831000000 -40.038441 173.70673 -35.738682 -146.01707 12.150189 -151.86269 -28.209591 156.26343
3832000000 -39.403004 164.32053 -35.738579 -153.14857 12.142153 -159.02435 -28.019674 141.12576
3833000000 -38.971928 153.9147 -35.737991 -160.30151 12.147565 -166.16982 -27.642153 126.99253
3834000000 -38.33194 144.37233 -35.731106 -167.5114 12.140983 -173.30489 -27.059916 113.73559
3835000000 -37.601574 135.49875 -35.750202 -174.51576 12.142776 179.55975 -26.357422 101.80231
3836000000 -37.180225 126.51871 -35.761009 178.39058 12.137416 172.39671 -25.61532 90.780205
3837000000 -36.731529 117.36472 -35.736652 171.2496 12.138213 165.29858 -24.860971 80.974365
3838000000 -35.961674 109.64455 -35.739529 164.04767 12.13332 158.18622 -24.140797 71.546463
3839000000 -35.606159 101.04742 -35.756523 157.05223 12.122347 151.04179 -23.430397 63.179996
3840000000 -34.845608 92.374542 -35.761063 149.8744 12.121638 143.89961 -22.815464 55.385136
3841000000 -34.482178 84.319389 -35.767929 142.78929 12.121862 136.81049 -22.142513 48.12159
3842000000 -34.170269 77.817078 -35.776611 135.65033 12.113729 129.68639 -21.56472 40.801968
3843000000 -33.799961 70.759666 -35.790085 128.60442 12.108215 122.58697 -21.052063 34.09782
3844000000 -33.337494 63.590538 -35.787258 121.64967 12.102497 115.47954 -20.547981 27.75186
3845000000 -33.08144 56.918621 -35.79258 114.46298 12.098721 108.36618 -20.132013 21.624348
3846000000 -32.76075 49.47332 -35.808994 107.38051 12.095575 101.26753 -19.696283 15.7177
3847000000 -32.592308 42.604774 -35.809807 100.35284 12.092344 94.186607 -19.315248 9.8080416
3848000000 -32.371704 36.655785 -35.805145 93.214928 12.084541 87.096031 -18.981356 3.9784513
3849000000 -32.283833 29.92144 -35.817055 86.118423 12.08128 80.017532 -18.695066 -1.5143111
3850000000 -32.21011 23.539093 -35.822144 79.122688 12.077604 72.94236 -18.424742 -7.0826039
3851000000 -32.123749 17.592161 -35.839981 72.053307 12.074155 65.848663 -18.166838 -12.592525
3852000000 -32.048973 11.439221 -35.832798 64.970261 12.069985 58.766838 -17.966532 -17.833948
3853000000 -32.023281 5.4192991 -35.843616 57.941307 12.068505 51.720722 -17.766516 -23.131413
3854000000 -32.219044 -0.50377429 -35.834389 50.876888 12.068429 44.626377 -17.625778 -28.481823
3855000000 -32.329792 -6.3715611 -35.847515 43.833694 12.065023 37.563976 -17.475056 -33.64093
3856000000 -32.378506 -12.98764 -35.846504 36.752628 12.062581 30.472767 -17.389826 -38.802517
3857000000 -32.582508 -18.022299 -35.859188 29.742086 12.064192 23.406794 -17.300783 -43.991703
3858000000 -32.923618 -23.95503 -35.85778 22.707359 12.065152 16.34947 -17.252104 -48.809383
3859000000 -33.105656 -29.412939 -35.864456 15.637638 12.060137 9.3076639 -17.211679 -53.962669
3860000000 -33.401146 -34.540386 -35.848591 8.5761337 12.066837 2.2421806 -17.195892 -58.949539
3861000000 -33.807068 -40.270164 -35.86623 1.5122212 12.063899 -4.817565 -17.225456 -63.926727
3862000000 -34.015148 -44.934715 -35.843243 -5.5856886 12.069144 -11.870855 -17.260031 -68.959908
3863000000 -34.6395 -50.276989 -35.858196 -12.644114 12.071913 -18.949886 -17.321466 -73.987556
3864000000 -35.067719 -55.870094 -35.84922 -19.688126 12.072798 -26.022051 -17.398254 -78.936607
3865000000 -35.515411 -59.44212 -35.843952 -26.728724 12.078602 -33.070965 -17.521103 -83.95742
3866000000 -36.047623 -65.149971 -35.845684 -33.773304 12.078938 -40.160244 -17.660877 -88.898865
3867000000 -36.669426 -68.299667 -35.828972 -40.777679 12.086758 -47.242115 -17.827341 -93.883072
3868000000 -37.343727 -72.375763 -35.8367 -47.874332 12.090857 -54.303173 -18.016754 -98.815598
3869000000 -37.887276 -75.206207 -35.836514 -54.85553 12.100094 -61.377331 -18.204933 -103.81764
3870000000 -38.310547 -79.391586 -35.831829 -62.001602 12.108336 -68.480782 -18.459503 -108.90189
3871000000 -39.050797 -84.356361 -35.811245 -69.046303 12.111548 -75.585266 -18.734753 -113.89983
3872000000 -39.490669 -87.251404 -35.81818 -76.180389 12.116188 -82.658096 -19.038979 -119.01601
3873000000 -39.977894 -91.764442 -35.814369 -83.128029 12.122222 -89.74749 -19.369305 -124.03965
3874000000 -40.727398 -96.365631 -35.821571 -90.33429 12.130482 -96.858688 -19.757404 -129.37918
3875000000 -41.419571 -102.21916 -35.81329 -97.40097 12.13933 -103.93858 -20.174557 -134.93784
3876000000 -41.674477 -107.0326 -35.799538 -104.60406 12.144936 -111.04575 -20.642038 -140.04628
3877000000 -41.727985 -111.29084 -35.802025 -111.58112 12.153961 -118.16779 -21.147247 -145.85265
3878000000 -41.855671 -118.54476 -35.786797 -118.71832 12.155465 -125.26082 -21.711166 -151.48746
3879000000 -42.401047 -126.46269 -35.797436 -125.80003 12.162572 -132.41968 -22.31584 -157.41838
3880000000 -42.367046 -134.23351 -35.791943 -132.96684 12.171429 -139.52028 -23.00242 -163.52202
3881000000 -42.535679 -141.15575 -35.785294 -140.01363 12.172508 -146.65302 -23.734697 -169.9938
3882000000 -42.16748 -151.13287 -35.786854 -147.13615 12.178928 -153.7908 -24.64188 -177.12015
3883000000 -41.671619 -162.21648 -35.783852 -154.23314 12.186444 -160.91158 -25.580057 175.81612
3884000000 -41.609592 -172.53033 -35.770111 -161.32637 12.188861 -168.02725 -26.625921 167.49585
3885000000 -41.14896 176.66827 -35.759472 -168.41013 12.195477 -175.18912 -27.82036 157.85149
3886000000 -40.541687 165.5027 -35.774586 -175.58101 12.198968 177.72215 -29.120838 147.31671
3887000000 -39.691051 157.04732 -35.779236 177.33205 12.20082 170.55685 -30.518286 133.87924
3888000000 -39.062016 147.76025 -35.756084 170.19254 12.202225 163.41261 -31.761919 117.2141
3889000000 -38.274635 139.89226 -35.766602 163.13182 12.204683 156.27098 -32.856197 97.34819
3890000000 -37.410461 129.44554 -35.765907 155.97177 12.202749 149.13324 -33.100853 74.300476
3891000000 -36.720779 122.15382 -35.762737 148.79675 12.210361 141.9993 -32.614902 52.883301
3892000000 -36.047127 114.44728 -35.765244 141.69788 12.20933 134.83618 -31.541914 33.287922
3893000000 -35.296043 107.61851 -35.768726 134.61337 12.205985 127.7532 -30.121788 18.550648
3894000000 -34.582832 98.786827 -35.779209 127.41354 12.204946 120.60505 -28.84153 5.6133761
3895000000 -34.128227 92.238625 -35.778965 120.37594 12.205389 113.44648 -27.636305 -5.0401058
3896000000 -33.4282 85.584229 -35.780064 113.22063 12.203016 106.33295 -26.535723 -14.101251
3897000000 -32.95945 78.191292 -35.778202 106.16053 12.204799 99.183174 -25.542759 -22.189001
3898000000 -32.415127 71.441826 -35.78054 99.095833 12.199251 92.064293 -24.690718 -29.612614
3899000000 -31.923578 65.582924 -35.7966 91.958458 12.195947 84.946075 -23.891144 -36.612152
3900000000 -31.588533 58.12392 -35.793644 84.815788 12.19529 77.830482 -23.222166 -43.065891
3901000000 -31.151758 51.99226 -35.796257 77.632462 12.193085 70.684189 -22.590654 -49.494823
3902000000 -30.801958 45.82254 -35.817177 70.606499 12.187167 63.564011 -22.088612 -55.758026
3903000000 -30.618401 39.931049 -35.807995 63.475433 12.188125 56.46912 -21.540575 -61.47794
3904000000 -30.337988 32.906498 -35.837524 56.388378 12.181154 49.355453 -21.123598 -67.245544
3905000000 -30.042677 26.65868 -35.815029 49.351513 12.175143 42.254509 -20.71855 -73.041649
3906000000 -29.861816 20.567591 -35.821991 42.238716 12.172442 35.143169 -20.39003 -78.773674
3907000000 -29.67086 14.608102 -35.823914 35.185337 12.168543 28.029964 -20.052092 -84.307762
3908000000 -29.589722 8.2284107 -35.835751 28.074903 12.167531 20.967062 -19.801176 -89.875839
3909000000 -29.550154 2.1938055 -35.850899 20.981852 12.164071 13.864806 -19.57353 -95.292847
3910000000 -29.45188 -3.3099027 -35.856728 13.873852 12.158228 6.7354412 -19.346552 -100.7146
3911000000 -29.454193 -9.9950638 -35.868801 6.8657146 12.154916 -0.31307831 -19.209887 -106.19463
3912000000 -29.376295 -15.307631 -35.863346 -0.16926749 12.15474 -7.4179211 -19.055197 -111.49069
3913000000 -29.412718 -21.036724 -35.872105 -7.2622356 12.154393 -14.492243 -18.936729 -116.98888
3914000000 -29.434805 -27.041407 -35.866283 -14.292699 12.151332 -21.573112 -18.839169 -122.32619
3915000000 -29.4888 -32.759186 -35.870358 -21.443323 12.14794 -28.65148 -18.767975 -127.62748
3916000000 -29.64481 -38.989475 -35.874256 -28.570526 12.145426 -35.776436 -18.728512 -133.13943
3917000000 -29.773172 -44.926018 -35.873783 -35.541515 12.145389 -42.819759 -18.699881 -138.47194
3918000000 -29.916691 -50.983517 -35.877628 -42.639507 12.149673 -49.908009 -18.679432 -144.02972
3919000000 -29.990353 -56.246037 -35.894035 -49.744888 12.144212 -56.998611 -18.713127 -149.54393
3920000000 -30.349356 -62.560871 -35.882225 -56.780029 12.146477 -64.065147 -18.726933 -154.85643
3921000000 -30.465351 -68.372383 -35.878963 -63.837013 12.148202 -71.141335 -18.772783 -160.36067
3922000000 -30.742479 -73.519211 -35.887745 -70.867111 12.147896 -78.226402 -18.837553 -166.09569
3923000000 -30.900341 -80.342529 -35.881584 -77.973564 12.148335 -85.325829 -18.942394 -171.76469
3924000000 -31.275774 -86.290695 -35.890388 -85.04454 12.149589 -92.399902 -19.014795 -177.27992
3925000000 -31.497747 -92.00415 -35.892025 -92.04422 12.154639 -99.478493 -19.136868 177.11171
3926000000 -31.910501 -98.114471 -35.892841 -99.129471 12.153994 -106.53705 -19.277832 171.30969
3927000000 -31.947908 -104.43188 -35.877487 -106.23337 12.165442 -113.64713 -19.409302 165.59906
3928000000 -32.486336 -110.64875 -35.894768 -113.33613 12.160005 -120.74575 -19.569096 159.62935
3929000000 -32.813885 -116.94426 -35.878162 -120.34896 12.167933 -127.80792 -19.741661 153.84491
3930000000 -33.073753 -123.51939 -35.896248 -127.49502 12.16991 -134.92355 -19.93722 147.88924
3931000000 -33.322689 -130.52158 -35.882427 -134.50977 12.169551 -141.99103 -20.145569 141.8219
3932000000 -33.647285 -137.4962 -35.878761 -141.59163 12.175397 -149.09619 -20.343023 135.64766
3933000000 -33.958702 -142.80965 -35.882427 -148.61267 12.179872 -156.18541 -20.581688 129.26178
3934000000 -34.211483 -151.38484 -35.884827 -155.67528 12.18342 -163.26573 -20.843439 123.01467
3935000000 -34.471672 -158.61357 -35.868774 -162.82326 12.184331 -170.3828 -21.051407 116.65486
3936000000 -34.490955 -164.45978 -35.880569 -169.86584 12.189054 -177.44411 -21.339916 110.03941
3937000000 -34.796093 -171.9371 -35.879272 -176.95665 12.195662 175.42323 -21.624338 103.12643
3938000000 -34.877716 179.75395 -35.872402 176.00647 12.201371 168.34474 -21.903175 96.376617
3939000000 -34.741581 172.87196 -35.880459 168.8094 12.201997 161.22586 -22.210417 89.554413
3940000000 -34.707554 164.90685 -35.87188 161.76852 12.207753 154.15953 -22.53409 82.333519
3941000000 -34.832024 157.23425 -35.881313 154.7249 12.211292 147.01501 -22.829483 74.964005
3942000000 -34.684372 150.01691 -35.862141 147.50298 12.215554 139.8933 -23.168247 67.469307
3943000000 -34.449741 142.38518 -35.866669 140.45126 12.22125 132.81549 -23.505566 59.930241
3944000000 -34.341839 135.71188 -35.858738 133.34593 12.22444 125.67211 -23.804296 51.990486
3945000000 -34.059708 129.16873 -35.861782 126.3925 12.232393 118.56354 -24.159603 44.112225
3946000000 -33.792732 120.78255 -35.868969 119.27907 12.229235 111.46264 -24.460218 35.843838
3947000000 -33.418167 114.11281 -35.849277 112.14786 12.233728 104.36456 -24.859848 27.53883
3948000000 -33.127247 107.47115 -35.857128 104.99962 12.236584 97.197906 -25.188423 18.749647
3949000000 -32.82412 100.48621 -35.851368 97.938652 12.241662 90.110207 -25.415958 9.6545467
3950000000 -32.55687 94.385834 -35.839554 90.737724 12.245263 82.978134 -25.696005 0.5677644
3951000000 -32.199669 88.020844 -35.864021 83.653008 12.24973 75.863403 -25.946781 -8.5273304
3952000000 -31.772835 81.750069 -35.864365 76.617111 12.251677 68.753494 -26.280899 -18.349146
3953000000 -31.42374 75.3032 -35.856636 69.474655 12.249043 61.600712 -26.516745 -27.623384
3954000000 -31.05785 69.215103 -35.861397 62.341583 12.252357 54.491657 -26.717592 -37.430737
3955000000 -30.689968 62.898453 -35.85614 55.301674 12.2554 47.358212 -26.921993 -47.458611
3956000000 -30.331047 57.18248 -35.860069 48.274746 12.257995 40.244045 -27.053259 -57.156925
3957000000 -30.017973 50.879257 -35.853962 41.11277 12.2588 33.096458 -27.134029 -67.692909
3958000000 -29.678724 45.098022 -35.855511 33.972713 12.262748 26.001543 -27.225832 -77.687172
3959000000 -29.387629 39.274174 -35.858738 26.881943 12.261061 18.852728 -27.314022 -87.843658
3960000000 -29.085859 33.103958 -35.873886 19.803974 12.258451 11.722421 -27.337568 -98.425247
3961000000 -28.798264 27.493454 -35.870773 12.585233 12.262907 4.6003222 -27.388929 -108.87289
3962000000 -28.586557 21.699781 -35.865879 5.5880651 12.260178 -2.5480597 -27.282825 -118.9565
3963000000 -28.357071 16.114269 -35.873421 -1.6378593 12.261381 -9.6756735 -27.190506 -129.272
3964000000 -28.065523 9.8196135 -35.892372 -8.6846275 12.261955 -16.750921 -26.996847 -139.04138
3965000000 -27.909462 4.5098968 -35.879147 -15.795961 12.259401 -23.936539 -26.824074 -148.82162
3966000000 -27.779696 -1.5814569 -35.872074 -22.926603 12.256673 -31.010887 -26.681665 -159.35596
3967000000 -27.563389 -7.2609797 -35.878178 -30.003105 12.257461 -38.138428 -26.400406 -168.66118
3968000000 -27.378519 -13.288383 -35.891113 -37.056267 12.257785 -45.26342 -26.105812 -178.3477
3969000000 -27.288004 -19.330141 -35.903831 -44.185284 12.251736 -52.381195 -25.813662 172.56743
3970000000 -27.212206 -24.781361 -35.883656 -51.324181 12.249368 -59.508347 -25.538151 163.52937
3971000000 -27.085777 -31.058418 -35.906528 -58.394505 12.250141 -66.632393 -25.169842 154.76926
3972000000 -27.058556 -37.133488 -35.906883 -65.494057 12.247112 -73.742737 -24.84841 146.17116
3973000000 -27.005819 -42.939053 -35.915173 -72.534698 12.244081 -80.84613 -24.476383 138.03148
3974000000 -26.989231 -49.031757 -35.921478 -79.621765 12.246816 -87.942329 -24.130291 130.06308
3975000000 -27.036039 -55.634346 -35.928558 -86.678818 12.242458 -95.053329 -23.754133 122.2544
3976000000 -26.996155 -61.769787 -35.928284 -93.805046 12.241334 -102.18876 -23.390829 114.81844
3977000000 -27.076971 -67.312836 -35.92226 -100.88188 12.240972 -109.27277 -23.078175 107.83213
3978000000 -27.113043 -73.946823 -35.936466 -108.10355 12.23686 -116.41099 -22.703638 100.55108
3979000000 -27.190886 -80.063072 -35.95422 -115.17861 12.233788 -123.50114 -22.383904 93.514809
3980000000 -27.343657 -86.642113 -35.951092 -122.13602 12.231146 -130.58279 -22.082834 87.163139
3981000000 -27.396782 -93.206223 -35.95208 -129.19223 12.228119 -137.71269 -21.785713 80.510223
3982000000 -27.568871 -100.10023 -35.961475 -136.33029 12.226431 -144.79597 -21.512489 74.281227
3983000000 -27.695127 -106.49122 -35.969917 -143.3618 12.221551 -151.89044 -21.222027 68.162704
3984000000 -27.8853 -112.96623 -35.960976 -150.39035 12.223095 -158.9915 -20.972364 61.961182
3985000000 -27.992058 -119.55617 -35.972603 -157.56534 12.220466 -166.07687 -20.759224 56.075195
3986000000 -28.253899 -126.50681 -35.994934 -164.57866 12.218207 -173.1714 -20.541887 50.257191
3987000000 -28.448372 -133.67622 -35.991314 -171.68564 12.219819 179.74547 -20.322842 44.353958
3988000000 -28.598049 -140.46729 -36.00877 -178.78098 12.218524 172.66336 -20.120018 38.828522
3989000000 -28.806875 -147.57562 -36.001255 174.22513 12.21377 165.58336 -19.967054 33.234104
3990000000 -29.058502 -154.21233 -36.014637 167.16136 12.215837 158.4686 -19.794224 27.889708
3991000000 -29.175335 -160.89439 -36.015442 160.08374 12.213967 151.37021 -19.634323 22.308012
3992000000 -29.462204 -168.27423 -36.010746 153.06523 12.21196 144.30159 -19.53686 17.097687
3993000000 -29.670328 -175.02325 -36.013035 145.9534 12.209804 137.17938 -19.456974 11.965356
3994000000 -29.85808 177.15645 -36.035225 138.95406 12.211303 130.16556 -19.37322 6.6043749
3995000000 -29.944948 169.63934 -36.012615 131.84259 12.211407 123.02552 -19.318222 1.5178552
3996000000 -30.127806 163.34782 -36.018066 124.78259 12.217887 115.93979 -19.253975 -3.6129391
3997000000 -30.280529 155.58258 -36.022572 117.80067 12.217369 108.87882 -19.248613 -8.8439198
3998000000 -30.375219 148.70816 -36.041534 110.63101 12.215966 101.77909 -19.267788 -13.774169
3999000000 -30.513943 142.20067 -36.028568 103.57877 12.224095 94.704948 -19.273331 -18.878618
4000000000 -30.593451 135.22942 -36.014908 96.633286 12.225758 87.63195 -19.334747 -23.77548
4001000000 -30.625124 128.47475 -36.019531 89.502426 12.223314 80.548737 -19.388048 -28.718521
4002000000 -30.631454 122.37566 -36.016747 82.405121 12.227434 73.447861 -19.445362 -33.707451
4003000000 -30.729347 115.62717 -36.024109 75.366959 12.231603 66.36071 -19.581577 -38.553005
4004000000 -30.68486 109.57897 -36.007473 68.268051 12.237716 59.276199 -19.698795 -43.381531
4005000000 -30.564182 102.77187 -36.028362 61.317444 12.237721 52.180401 -19.874638 -48.000061
4006000000 -30.55378 98.05674 -36.016815 54.194172 12.242691 45.07671 -20.046986 -52.988132
4007000000 -30.390785 91.110207 -36.026123 47.161358 12.245091 37.98666 -20.300583 -57.645603
4008000000 -30.354679 84.912544 -36.014729 40.156445 12.251502 30.87973 -20.551947 -62.437382
4009000000 -30.182297 79.285423 -36.017944 33.026615 12.258122 23.766304 -20.837303 -67.020958
4010000000 -30.086369 73.707291 -36.015831 25.943157 12.258751 16.644072 -21.147116 -71.655548
4011000000 -29.897818 68.119286 -36.025639 18.869898 12.26349 9.5659361 -21.538877 -76.072021
4012000000 -29.721655 62.571003 -35.997532 11.769454 12.268786 2.4522741 -21.957348 -80.514793
4013000000 -29.486755 56.646866 -36.020779 4.7426085 12.273309 -4.656281 -22.392138 -85.009048
4014000000 -29.244135 51.019779 -36.020855 -2.3158524 12.271699 -11.76739 -22.937891 -89.287819
4015000000 -29.066683 45.758743 -36.011154 -9.4219437 12.276556 -18.892887 -23.508406 -93.406868
4016000000 -28.890623 39.70752 -36.008877 -16.488083 12.279413 -26.011076 -24.20302 -97.61599
4017000000 -28.583723 34.226845 -36.020157 -23.476173 12.283395 -33.167812 -24.936836 -101.05583
4018000000 -28.414289 28.56407 -36.014893 -30.680223 12.285276 -40.293846 -25.747164 -105.07672
4019000000 -28.197687 22.945648 -36.013641 -37.858231 12.28781 -47.422554 -26.679214 -108.66344
4020000000 -27.96509 17.36879 -36.003815 -44.797684 12.291338 -54.521847 -27.859241 -111.32932
4021000000 -27.691008 10.843684 -36.005833 -51.914108 12.294007 -61.645622 -29.114761 -114.06249
4022000000 -27.468754 5.2479043 -36.006065 -58.97551 12.295833 -68.788094 -30.60705 -116.00895
4023000000 -27.243414 -1.1448002 -36.007957 -66.094254 12.298844 -75.925125 -32.461609 -115.7533
4024000000 -27.121853 -6.6966796 -36.007217 -73.15387 12.293148 -83.051262 -34.559071 -113.71075
4025000000 -26.925583 -12.991103 -36.008266 -80.246544 12.295276 -90.192383 -37.253063 -105.71843
4026000000 -26.743528 -18.94026 -36.011353 -87.291046 12.297696 -97.28923 -40.031792 -84.776848
4027000000 -26.599819 -25.471296 -36.013477 -94.437355 12.293807 -104.46587 -40.546795 -53.864563
4028000000 -26.487392 -31.801996 -35.993923 -101.43414 12.295122 -111.55793 -38.032276 -30.394787
4029000000 -26.365305 -37.979202 -36.005657 -108.53164 12.294695 -118.69691 -35.337452 -18.809973
4030000000 -26.29871 -44.891438 -36.006557 -115.60071 12.288833 -125.84679 -33.009819 -14.575656
4031000000 -26.158615 -51.369083 -36.000813 -122.73891 12.291626 -132.96735 -31.148537 -13.743047
4032000000 -26.12636 -57.876751 -36.009678 -129.86983 12.287041 -140.06937 -29.62636 -14.510746
4033000000 -26.041424 -64.447517 -36.016899 -136.84709 12.287478 -147.21558 -28.209122 -17.456915
4034000000 -26.0956 -71.344551 -36.029594 -143.99355 12.278009 -154.29022 -27.112761 -19.68898
4035000000 -25.998365 -78.047043 -36.017117 -151.02582 12.278418 -161.41194 -26.163527 -22.61986
4036000000 -26.035641 -85.309227 -36.017101 -158.11243 12.272738 -168.5601 -25.248516 -26.054476
4037000000 -26.024954 -92.062057 -36.010487 -165.21567 12.269403 -175.64134 -24.527468 -29.508917
4038000000 -26.078068 -99.161316 -36.010506 -172.31471 12.269082 177.24997 -23.883837 -33.168034
4039000000 -26.104477 -106.02561 -36.008881 -179.29677 12.264585 170.1333 -23.251791 -37.125061
4040000000 -26.177021 -113.42915 -36.013382 173.63499 12.262418 163.02473 -22.712957 -40.908871
4041000000 -26.191664 -120.62587 -36.009357 166.41731 12.25467 155.94608 -22.24835 -44.813892
4042000000 -26.2479 -128.07286 -36.014904 159.41953 12.2553 148.8132 -21.818401 -48.574203
4043000000 -26.308767 -135.37054 -36.009163 152.37808 12.247823 141.72942 -21.444956 -52.564571
4044000000 -26.380077 -142.99417 -36.00972 145.22739 12.245872 134.64313 -21.092426 -56.702385
4045000000 -26.441431 -150.51382 -36.020336 138.20981 12.246236 127.52958 -20.792608 -60.802925
4046000000 -26.533976 -158.15697 -36.004959 131.22025 12.243112 120.4936 -20.556921 -64.871994
4047000000 -26.577187 -165.62701 -36.008854 124.08028 12.238671 113.40779 -20.311697 -68.797829
4048000000 -26.63027 -173.66663 -36.010956 116.95587 12.237978 106.31723 -20.093203 -72.7892
4049000000 -26.688705 178.9494 -36.001373 109.97016 12.239209 99.218613 -19.90061 -76.956055
4050000000 -26.697649 171.35367 -36.001404 102.96019 12.23344 92.114586 -19.780325 -81.078629
4051000000 -26.702574 164.01299 -35.992874 95.772278 12.231395 85.061226 -19.640644 -84.900795
4052000000 -26.779684 156.53062 -35.998817 88.697823 12.235188 77.963257 -19.550993 -89.167328
4053000000 -26.754332 148.96289 -35.989208 81.678329 12.229953 70.905098 -19.506325 -93.462296
4054000000 -26.743982 141.79738 -35.99054 74.542007 12.231556 63.813377 -19.446281 -97.310524
4055000000 -26.708195 134.60271 -35.993877 67.442337 12.230964 56.74036 -19.406759 -101.49361
4056000000 -26.678875 127.23418 -35.999195 60.331642 12.234278 49.63353 -19.421335 -105.649
4057000000 -26.654284 120.42644 -35.989517 53.273991 12.233268 42.554585 -19.454308 -109.78568
4058000000 -26.587286 113.21804 -35.976269 46.120621 12.234236 35.485291 -19.509968 -114.00024
4059000000 -26.535772 106.54071 -35.964169 39.108585 12.237179 28.410698 -19.580997 -118.06777
4060000000 -26.431103 100.03256 -35.977497 31.964134 12.239365 21.330359 -19.701513 -122.2188
4061000000 -26.313021 93.511467 -35.977325 25.003443 12.241373 14.238148 -19.825226 -126.22071
4062000000 -26.245239 87.200157 -35.975792 17.880333 12.24611 7.1521206 -19.95862 -130.22879
4063000000 -26.134758 81.15786 -35.962833 10.724298 12.242585 0.05413416 -20.143759 -134.53267
4064000000 -26.058407 75.217865 -35.960079 3.6796517 12.250734 -7.0480719 -20.360682 -138.62115
4065000000 -25.958118 69.13398 -35.953548 -3.3095839 12.251912 -14.090431 -20.588997 -142.45961
4066000000 -25.832272 63.192646 -35.950264 -10.545478 12.255945 -21.197092 -20.852531 -146.68951
4067000000 -25.630026 57.478756 -35.952965 -17.635736 12.257497 -28.302525 -21.159611 -150.58403
4068000000 -25.55868 52.183723 -35.946678 -24.654011 12.262728 -35.384155 -21.484316 -154.3813
4069000000 -25.442284 46.527412 -35.93148 -31.908199 12.268323 -42.503227 -21.857887 -158.24022
4070000000 -25.258856 40.896278 -35.956646 -38.949512 12.272014 -49.571571 -22.24766 -162.04376
4071000000 -25.110722 35.422695 -35.942226 -46.023342 12.276068 -56.678684 -22.680964 -165.91049
4072000000 -24.991442 30.155518 -35.954895 -53.181515 12.27564 -63.791012 -23.177282 -169.44641
4073000000 -24.8365 24.525177 -35.9506 -60.262253 12.281472 -70.890053 -23.675177 -172.99921
4074000000 -24.671362 19.46933 -35.9324 -67.209076 12.284043 -77.986046 -24.304691 -176.44885
4075000000 -24.571239 13.914762 -35.948513 -74.55204 12.288113 -85.097107 -24.853668 -179.70143
4076000000 -24.394579 8.8469296 -35.946232 -81.574951 12.290445 -92.203552 -25.57127 177.44714
4077000000 -24.30479 2.923018 -35.945095 -88.72628 12.291664 -99.28904 -26.260244 174.56459
4078000000 -24.171057 -2.2571855 -35.94376 -95.799713 12.296937 -106.41212 -27.09024 171.87708
4079000000 -24.028 -7.9114575 -35.933922 -102.93655 12.298903 -113.52194 -27.896299 169.99442
4080000000 -23.925097 -13.342001 -35.923882 -109.98489 12.303305 -120.66914 -28.915071 168.05605
4081000000 -23.821589 -18.981148 -35.938717 -117.1104 12.302787 -127.75988 -29.937801 167.53416
4082000000 -23.758408 -24.564432 -35.926929 -124.28438 12.309414 -134.88129 -30.969482 167.67038
4083000000 -23.651932 -30.200857 -35.929203 -131.34644 12.309533 -141.98026 -32.148647 169.08401
4084000000 -23.58437 -35.990536 -35.935879 -138.58728 12.311785 -149.12146 -33.358028 172.08598
4085000000 -23.537209 -41.935234 -35.934235 -145.64839 12.31675 -156.2337 -34.391304 177.60202
4086000000 -23.503084 -47.73962 -35.938602 -152.68633 12.317589 -163.3353 -35.353664 -174.84642
4087000000 -23.431076 -53.803062 -35.937252 -159.94839 12.319232 -170.45746 -35.958099 -165.74419
4088000000 -23.417768 -59.673771 -35.938969 -167.07425 12.322262 -177.56648 -36.061867 -155.38905
4089000000 -23.411039 -66.150742 -35.944679 -174.09604 12.321281 175.32903 -35.453461 -147.82146
4090000000 -23.40428 -72.342621 -35.93121 178.8981 12.322593 168.1902 -34.805435 -140.72755
4091000000 -23.428093 -78.687675 -35.938915 171.67755 12.327864 161.08116 -33.694572 -135.46394
4092000000 -23.419168 -84.95504 -35.94582 164.59586 12.323157 153.95311 -32.810616 -134.07079
4093000000 -23.450977 -91.515388 -35.94091 157.58049 12.326821 146.84923 -31.861567 -132.73708
4094000000 -23.486 -98.018135 -35.932781 150.38109 12.329131 139.73431 -31.170897 -133.03833
4095000000 -23.501736 -104.83525 -35.949013 143.3221 12.329369 132.63499 -30.374161 -134.25021
4096000000 -23.604519 -111.56642 -35.951424 136.20424 12.332518 125.47161 -29.640703 -136.43166
4097000000 -23.629082 -118.35424 -35.945858 129.00801 12.329681 118.35968 -28.975954 -138.57722
4098000000 -23.626261 -125.27882 -35.967342 121.85114 12.328348 111.24527 -28.445208 -140.81049
4099000000 -23.740028 -132.46727 -35.974594 114.80573 12.328165 104.10272 -27.905127 -144.66396
4100000000 -23.782885 -139.45532 -35.980785 107.61803 12.326804 97.024574 -27.456217 -147.67229
4101000000 -23.841455 -146.5349 -35.965199 100.62837 12.332384 89.910744 -27.073582 -150.95828
4102000000 -23.908457 -153.67632 -35.98772 93.516693 12.3355 82.798172 -26.684099 -154.62953
4103000000 -23.952188 -161.09492 -35.988182 86.369499 12.32783 75.657028 -26.33857 -158.76352
4104000000 -24.012405 -168.47002 -35.970966 79.299026 12.331411 68.577972 -26.06748 -162.38025
4105000000 -24.082689 -175.62325 -35.98629 72.12709 12.329916 61.448639 -25.792053 -166.47038
4106000000 -24.095396 176.99805 -36.000519 65.09407 12.330485 54.350792 -25.551645 -170.68497
4107000000 -24.117769 169.345 -35.996178 57.879604 12.331821 47.241032 -25.273365 -174.89191
4108000000 -24.125639 162.3334 -35.99894 50.807125 12.331205 40.104073 -25.073681 -179.42075
4109000000 -24.174984 154.82866 -35.996696 43.679245 12.331832 32.975414 -24.930351 176.35974
4110000000 -24.233631 147.48653 -36.007889 36.694435 12.331501 25.881393 -24.789568 171.50389
4111000000 -24.211351 140.22113 -36.026165 29.536249 12.328775 18.784693 -24.685997 167.13255
4112000000 -24.158413 132.76241 -36.013023 22.394747 12.328814 11.644679 -24.611292 162.68037
4113000000 -24.203194 125.44408 -36.032177 15.388012 12.328703 4.564538 -24.499975 157.67009
4114000000 -24.179628 118.53524 -36.021633 8.3494873 12.331705 -2.5529323 -24.460951 152.99657
4115000000 -24.188498 111.13863 -36.028454 1.1300819 12.328594 -9.6606092 -24.42909 148.06189
4116000000 -24.14024 104.01907 -36.042774 -5.8833008 12.325995 -16.778387 -24.395468 143.26451
4117000000 -24.111712 97.264824 -36.033482 -13.171148 12.328032 -23.871698 -24.392096 138.11505
4118000000 -24.075926 90.465591 -36.042778 -20.274113 12.331644 -30.987087 -24.355492 133.0708
4119000000 -24.062326 83.549339 -36.050266 -27.176643 12.331687 -38.103561 -24.431849 127.91634
4120000000 -24.045555 76.888191 -36.050636 -34.281425 12.327323 -45.192436 -24.439447 123.21169
4121000000 -23.947407 70.198395 -36.059536 -41.361103 12.324528 -52.278782 -24.526552 118.04522
4122000000 -23.943182 63.435005 -36.075195 -48.541584 12.329583 -59.418594 -24.639475 112.83249
4123000000 -23.934179 57.094414 -36.058071 -55.65527 12.323416 -66.530777 -24.694862 108.05591
4124000000 -23.866714 51.061745 -36.069889 -62.699333 12.326551 -73.643349 -24.794191 102.98568
4125000000 -23.825649 44.57069 -36.068211 -69.872368 12.326818 -80.742607 -24.961035 97.761452
4126000000 -23.793924 38.331406 -36.093994 -76.903114 12.331019 -87.845573 -25.081827 92.433502
4127000000 -23.721992 31.994146 -36.090107 -83.991203 12.333218 -94.94059 -25.22271 87.74054
4128000000 -23.705502 26.028343 -36.082085 -91.141922 12.331947 -102.07854 -25.412251 82.351906
4129000000 -23.653341 20.007975 -36.100742 -98.234245 12.327783 -109.14874 -25.551003 77.731903
4130000000 -23.620182 14.034037 -36.091637 -105.29638 12.333776 -116.258 -25.751486 72.658928
4131000000 -23.601358 8.0542479 -36.102688 -112.37947 12.332279 -123.38963 -25.923475 67.628944
4132000000 -23.577244 2.4077065 -36.113548 -119.47941 12.33465 -130.50777 -26.126686 62.87265
4133000000 -23.526173 -3.5249827 -36.120415 -126.50975 12.330988 -137.58182 -26.3571 58.449234
4134000000 -23.500408 -9.205327 -36.123955 -133.5809 12.333559 -144.68814 -26.59581 53.739422
4135000000 -23.49588 -15.008316 -36.121037 -140.71477 12.333858 -151.80899 -26.90971 49.211861
4136000000 -23.440575 -21.106329 -36.121948 -147.87456 12.335735 -158.90614 -27.171806 44.972324
4137000000 -23.44673 -26.588766 -36.120441 -154.93881 12.341208 -166.02434 -27.427866 40.737473
4138000000 -23.440611 -32.66642 -36.140835 -161.95241 12.335361 -173.13783 -27.74135 36.067078
4139000000 -23.362114 -38.228687 -36.142879 -169.06755 12.334793 179.74846 -28.031977 32.596146
4140000000 -23.384739 -44.026134 -36.145489 -176.15382 12.339631 172.6483 -28.309351 28.580944
4141000000 -23.362957 -49.764904 -36.139977 176.77573 12.338274 165.53391 -28.715807 25.479078
4142000000 -23.380188 -55.847733 -36.158485 169.65463 12.341128 158.42337 -29.146435 22.216763
4143000000 -23.333784 -61.575924 -36.156708 162.50999 12.34419 151.29869 -29.418808 19.686047
4144000000 -23.295156 -67.660873 -36.168182 155.53615 12.341207 144.14465 -29.826159 16.73797
4145000000 -23.269251 -73.672218 -36.156429 148.42725 12.341982 137.05266 -30.235056 14.8613
4146000000 -23.256531 -79.602341 -36.171856 141.30795 12.343386 129.96979 -30.539986 12.85424
4147000000 -23.240852 -85.683609 -36.177425 134.15936 12.346133 122.85166 -30.947952 11.194648
4148000000 -23.247032 -92.040436 -36.182629 127.10105 12.346812 115.74162 -31.254923 10.934576
4149000000 -23.230602 -98.241982 -36.196541 120.05766 12.346291 108.60007 -31.597492 10.345017
4150000000 -23.196753 -104.51595 -36.212509 112.98939 12.345773 101.46545 -31.821964 10.918012
4151000000 -23.184732 -110.93368 -36.202454 105.91395 12.346459 94.35524 -32.073299 11.883845
4152000000 -23.157818 -117.47289 -36.214111 98.875793 12.344553 87.238838 -32.270996 12.537347
4153000000 -23.135818 -124.09667 -36.221775 91.842766 12.345139 80.113731 -32.220215 14.965939
4154000000 -23.094433 -130.91397 -36.238781 84.685005 12.342916 72.967827 -32.183556 16.357441
4155000000 -23.0543 -137.47221 -36.23349 77.62574 12.34043 65.863297 -32.141338 17.332104
4156000000 -23.004091 -144.15814 -36.230331 70.593056 12.34075 58.723385 -31.749578 18.274773
4157000000 -22.999811 -151.25803 -36.261024 63.478214 12.336867 51.639114 -31.536253 19.799356
4158000000 -22.933174 -157.95799 -36.260384 56.432476 12.336028 44.528053 -31.10574 21.074871
4159000000 -22.927717 -164.97511 -36.259323 49.274242 12.335927 37.384926 -30.702614 21.33423
4160000000 -22.861227 -172.12679 -36.275295 42.314182 12.3344 30.259052 -30.154873 21.235929
4161000000 -22.802256 -179.05898 -36.282482 35.222614 12.332646 23.132492 -29.630789 20.442335
4162000000 -22.705418 173.6839 -36.280312 28.069017 12.329742 16.027739 -29.060745 19.820158
4163000000 -22.651405 166.58786 -36.304096 20.963194 12.328459 8.9007034 -28.60685 18.029963
4164000000 -22.598392 159.33902 -36.284283 14.026357 12.322842 1.8056705 -28.073658 16.627699
4165000000 -22.526848 152.36461 -36.293049 7.0204477 12.319464 -5.3396401 -27.511187 14.592194
4166000000 -22.443426 145.07114 -36.298805 -0.086130872 12.316544 -12.421371 -27.127052 12.360068
4167000000 -22.331099 138.06477 -36.321602 -7.0909672 12.317696 -19.573433 -26.67421 10.182672
4168000000 -22.266478 130.79999 -36.322605 -14.145854 12.313643 -26.669521 -26.224371 7.1856265
4169000000 -22.134697 123.84673 -36.319286 -21.268497 12.30807 -33.76107 -25.793377 3.8711908
4170000000 -22.05344 116.84323 -36.322758 -28.237776 12.302119 -40.860592 -25.426504 1.4420277
4171000000 -21.966257 109.61231 -36.322189 -35.220272 12.300324 -47.993042 -25.113743 -2.155338
4172000000 -21.869328 102.75887 -36.332714 -42.238266 12.297758 -55.041451 -24.784304 -5.4097266
4173000000 -21.779009 95.800453 -36.336369 -49.315514 12.294732 -62.171513 -24.539318 -8.5921736
4174000000 -21.672989 88.961273 -36.322163 -56.362816 12.291805 -69.275322 -24.236151 -11.819259
4175000000 -21.60984 82.13813 -36.339008 -63.429966 12.286119 -76.351425 -23.966152 -15.683141
4176000000 -21.50374 75.500725 -36.336197 -70.365807 12.28828 -83.41983 -23.783106 -18.922005
4177000000 -21.434923 68.660362 -36.339523 -77.485245 12.281421 -90.529572 -23.631346 -22.746244
4178000000 -21.341583 62.089077 -36.343979 -84.336723 12.281339 -97.629845 -23.489985 -26.270288
4179000000 -21.278734 55.481365 -36.336014 -91.39666 12.280465 -104.70583 -23.38913 -29.821743
4180000000 -21.216284 48.998581 -36.330647 -98.644966 12.280087 -111.78405 -23.281519 -33.721424
4181000000 -21.139488 42.47401 -36.33725 -105.67204 12.277672 -118.85962 -23.18395 -36.712887
4182000000 -21.08127 36.149651 -36.319538 -112.73029 12.27704 -125.97707 -23.160757 -40.506634
4183000000 -21.054792 29.880255 -36.32848 -119.57449 12.276446 -133.05588 -23.148834 -43.991791
4184000000 -21.017572 23.648655 -36.319344 -126.8147 12.276213 -140.12222 -23.138161 -47.285648
4185000000 -20.976456 17.519854 -36.32473 -133.81412 12.277344 -147.22714 -23.22921 -50.888996
4186000000 -20.956921 11.492102 -36.318214 -140.90231 12.270477 -154.32721 -23.260775 -53.795158
4187000000 -20.9678 5.366199 -36.318169 -148.01688 12.277199 -161.39366 -23.385992 -56.99567
4188000000 -20.968918 -0.83694792 -36.323997 -155.09402 12.27899 -168.48361 -23.497143 -60.061699
4189000000 -20.958418 -6.6820436 -36.307461 -162.12854 12.280806 -175.5903 -23.650486 -62.822803
4190000000 -20.954889 -12.417061 -36.317684 -169.15137 12.280939 177.32283 -23.819336 -65.668182
4191000000 -20.980894 -18.445364 -36.301102 -176.26973 12.276998 170.21645 -24.053997 -68.523064
4192000000 -20.985296 -24.081154 -36.311783 176.77512 12.282097 163.16875 -24.290676 -70.87059
4193000000 -21.004675 -29.939135 -36.294697 169.57973 12.285512 156.04411 -24.518688 -73.108109
4194000000 -21.053492 -35.752594 -36.303421 162.58034 12.284243 148.9597 -24.802248 -75.045303
4195000000 -21.086567 -41.571304 -36.28968 155.47021 12.288037 141.8466 -25.065384 -76.596367
4196000000 -21.087137 -47.452404 -36.307255 148.35435 12.289367 134.72629 -25.335787 -77.935417
4197000000 -21.12656 -52.989178 -36.297256 141.30911 12.286309 127.6396 -25.638056 -79.387115
4198000000 -21.154858 -58.593822 -36.295681 134.24477 12.293517 120.53674 -25.948406 -80.159698
4199000000 -21.158304 -64.640182 -36.310726 127.0963 12.296649 113.43875 -26.283468 -80.72155
4200000000 -21.194263 -70.367432 -36.296783 120.1562 12.292895 106.33418 -26.58469 -80.774368
4201000000 -21.226027 -76.299744 -36.307941 112.99234 12.294373 99.241493 -26.793896 -80.14624
4202000000 -21.215538 -82.000038 -36.302628 106.05074 12.29258 92.137306 -27.050446 -80.048622
4203000000 -21.260439 -88.14109 -36.30492 98.847336 12.291246 85.006653 -27.202961 -79.058167
4204000000 -21.306473 -94.095207 -36.293129 91.848953 12.298499 77.925339 -27.298025 -77.805847
4205000000 -21.310699 -100.09449 -36.302109 84.818207 12.3009 70.788292 -27.289951 -76.414024
4206000000 -21.292452 -106.33269 -36.309513 77.663887 12.294305 63.692955 -27.353306 -75.34597
4207000000 -21.285309 -112.35561 -36.298309 70.485611 12.301673 56.594471 -27.210855 -73.423691
4208000000 -21.300392 -118.83054 -36.286724 63.570072 12.29985 49.476196 -27.0516 -72.559425
4209000000 -21.298674 -125.14885 -36.309685 56.462193 12.299507 42.393902 -26.861252 -71.759727
4210000000 -21.257713 -131.60683 -36.300266 49.325729 12.300883 35.254162 -26.516436 -71.361664
4211000000 -21.248871 -138.36777 -36.299049 42.324879 12.30069 28.141014 -26.194321 -71.10157
4212000000 -21.223722 -144.79681 -36.282509 35.245255 12.301721 21.083157 -25.832453 -71.208237
4213000000 -21.189653 -151.47896 -36.287575 28.09885 12.297732 13.942192 -25.462881 -71.957115
4214000000 -21.142462 -158.3839 -36.291237 21.100313 12.298421 6.8343124 -25.153608 -72.806641
4215000000 -21.107834 -165.14821 -36.286774 14.040032 12.294309 -0.25584543 -24.775486 -73.83551
4216000000 -21.059208 -171.97174 -36.283943 6.8513222 12.299391 -7.3901315 -24.374443 -75.757874
4217000000 -21.020485 -178.84712 -36.282001 -0.16982491 12.298012 -14.448518 -24.071056 -77.003242
4218000000 -20.940792 174.01218 -36.274784 -7.2515888 12.297684 -21.556971 -23.750168 -79.396507
4219000000 -20.880291 167.05049 -36.282291 -14.255493 12.295928 -28.692955 -23.441681 -81.36058
4220000000 -20.806366 159.92455 -36.263374 -21.281673 12.301275 -35.800884 -23.1276 -83.799919
4221000000 -20.751041 153.03775 -36.273647 -28.473312 12.299682 -42.894745 -22.878857 -86.436951
4222000000 -20.681526 145.81885 -36.258858 -35.564861 12.297289 -50.009953 -22.620085 -89.004524
4223000000 -20.599155 138.54221 -36.252735 -42.72216 12.298782 -57.10223 -22.373575 -92.023163
4224000000 -20.510059 131.42183 -36.242985 -49.744793 12.296291 -64.17704 -22.187302 -94.835655
4225000000 -20.446896 124.28655 -36.255924 -56.905479 12.296782 -71.313995 -22.002941 -97.763954
4226000000 -20.365108 117.1805 -36.249847 -63.972168 12.295527 -78.41227 -21.86335 -100.75014
4227000000 -20.301441 109.98085 -36.254517 -71.047897 12.298008 -85.495476 -21.703543 -104.08936
4228000000 -20.224535 102.99554 -36.250198 -78.124054 12.294912 -92.590187 -21.616663 -107.37418
4229000000 -20.134882 96.100807 -36.263573 -85.209351 12.294601 -99.706245 -21.487982 -110.53302
4230000000 -20.078878 88.931808 -36.235847 -92.433594 12.297294 -106.80648 -21.408812 -114.04832
4231000000 -20.008287 81.909157 -36.240891 -99.544922 12.28829 -113.92207 -21.384666 -117.45707
4232000000 -19.938396 75.013847 -36.244656 -106.51537 12.297295 -121.01568 -21.3113 -120.80262
4233000000 -19.892382 68.00547 -36.267582 -113.59709 12.299541 -128.11729 -21.312563 -124.20081
4234000000 -19.839087 61.291374 -36.266865 -120.75877 12.288525 -135.22659 -21.342609 -127.93544
4235000000 -19.766388 54.321911 -36.267555 -127.82133 12.295748 -142.28082 -21.370708 -131.7108
4236000000 -19.738228 47.481789 -36.251904 -134.91806 12.295618 -149.37477 -21.436247 -135.18016
4237000000 -19.68667 40.791477 -36.261932 -142.03505 12.293761 -156.4861 -21.524281 -138.92354
4238000000 -19.666809 34.036636 -36.262482 -148.96681 12.298298 -163.59009 -21.632292 -142.48441
4239000000 -19.626963 27.324291 -36.255608 -156.26633 12.294476 -170.69386 -21.785721 -146.26469
4240000000 -19.626545 20.792681 -36.25766 -163.29753 12.295035 -177.78883 -21.957726 -149.67796
4241000000 -19.59626 14.224751 -36.259304 -170.35196 12.297435 175.1226 -22.145658 -153.51425
4242000000 -19.584944 7.6441507 -36.24268 -177.44061 12.296001 168.02875 -22.34103 -157.27084
4243000000 -19.592947 1.3159962 -36.261478 175.47095 12.299593 160.95247 -22.633873 -160.97118
4244000000 -19.603081 -5.2602873 -36.274677 168.32596 12.302019 153.8196 -22.902864 -164.7229
4245000000 -19.60166 -11.418265 -36.251709 161.27919 12.303257 146.74884 -23.248697 -168.46559
4246000000 -19.614008 -17.904398 -36.252201 154.28848 12.305075 139.63536 -23.647972 -172.00539
4247000000 -19.618263 -24.3127 -36.254314 147.11949 12.305315 132.55956 -24.062035 -175.74301
4248000000 -19.654243 -30.56811 -36.247437 140.14775 12.304834 125.46084 -24.513613 -178.98671
4249000000 -19.682711 -36.847252 -36.256264 133.0683 12.309669 118.3202 -25.033031 177.16597
4250000000 -19.692287 -43.015774 -36.265293 126.09958 12.313922 111.24717 -25.59178 174.17418
4251000000 -19.759239 -49.330982 -36.254589 118.9799 12.308267 104.13899 -26.247515 170.8365
4252000000 -19.760939 -55.46487 -36.248436 111.76934 12.320159 97.028908 -26.904058 168.08238
4253000000 -19.791821 -61.719986 -36.261814 104.78705 12.317681 89.948479 -27.711582 165.05
4254000000 -19.822302 -67.962067 -36.253193 97.626556 12.327007 82.82354 -28.652782 163.14308
4255000000 -19.891367 -74.253944 -36.243427 90.578133 12.32257 75.712914 -29.562845 161.33206
4256000000 -19.904238 -80.571487 -36.251575 83.480362 12.326259 68.624908 -30.810452 160.23438
4257000000 -19.961834 -86.826836 -36.257496 76.390701 12.323263 61.504181 -31.81374 159.41486
4258000000 -19.985361 -93.208908 -36.223377 69.371185 12.33364 54.415344 -33.315296 161.28714
4259000000 -20.00478 -99.495102 -36.247231 62.242798 12.32988 47.271099 -34.681015 165.41328
4260000000 -20.02294 -105.88735 -36.221996 55.248795 12.338049 40.168922 -36.209332 172.576
4261000000 -20.051924 -112.2135 -36.247238 48.155754 12.33944 33.085068 -37.556549 -176.75493
4262000000 -20.065081 -118.84365 -36.220726 41.008629 12.33751 25.937439 -37.708725 -163.44551
4263000000 -20.10215 -125.17066 -36.225342 33.829895 12.34373 18.80653 -37.051376 -149.0551
4264000000 -20.08618 -131.74051 -36.22287 26.783131 12.346756 11.708608 -36.030792 -139.6521
4265000000 -20.127476 -138.25012 -36.210766 19.707708 12.345021 4.5782733 -34.655956 -132.68553
4266000000 -20.109119 -144.93176 -36.218079 12.515576 12.345592 -2.522131 -33.173801 -130.29669
4267000000 -20.066862 -151.54163 -36.210762 5.4540625 12.349842 -9.6445017 -32.010098 -130.34869
4268000000 -20.072189 -157.99461 -36.198902 -1.6067588 12.353202 -16.767395 -30.919685 -130.65157
4269000000 -20.02495 -164.80762 -36.203617 -8.9068708 12.352256 -23.910658 -29.962877 -132.64796
4270000000 -19.98893 -171.56229 -36.182915 -15.856999 12.353127 -31.020994 -29.112427 -135.36009
4271000000 -19.962952 -178.23685 -36.194809 -22.913019 12.354849 -38.098427 -28.314064 -138.15894
4272000000 -19.897009 175.10225 -36.188602 -30.072834 12.349018 -45.258881 -27.656225 -141.65764
4273000000 -19.851374 168.26259 -36.181461 -37.175472 12.352637 -52.393047 -27.010445 -145.54442
4274000000 -19.803019 161.63403 -36.185509 -44.227886 12.355232 -59.53495 -26.498686 -149.5658
4275000000 -19.72761 154.82761 -36.186581 -51.478588 12.358153 -66.633247 -25.988077 -153.66994
4276000000 -19.681002 148.05614 -36.188255 -58.528717 12.355463 -73.749199 -25.557777 -158.01053
4277000000 -19.590019 141.27206 -36.172474 -65.635361 12.358058 -80.837494 -25.181505 -162.24184
4278000000 -19.506001 134.5739 -36.199661 -72.754601 12.356229 -87.979607 -24.788614 -167.20053
4279000000 -19.434675 127.75826 -36.185719 -79.969398 12.350609 -95.100708 -24.482183 -171.52367
4280000000 -19.360891 120.97989 -36.173092 -86.928169 12.355847 -102.20938 -24.225487 -176.52896
4281000000 -19.275936 114.19182 -36.187592 -94.131935 12.351782 -109.35831 -23.933485 178.50133
4282000000 -19.201748 107.51295 -36.187489 -101.36503 12.35029 -116.46146 -23.711651 173.30641
4283000000 -19.105927 100.73313 -36.183544 -108.49415 12.34964 -123.58017 -23.494806 168.31975
4284000000 -19.018885 94.061043 -36.193527 -115.60938 12.348896 -130.68224 -23.330372 163.08925
4285000000 -18.916115 87.414063 -36.194641 -122.69254 12.348435 -137.82297 -23.160215 157.88896
4286000000 -18.873222 80.762115 -36.19162 -129.74825 12.348831 -144.9201 -23.027378 152.33063
4287000000 -18.766745 73.919113 -36.191288 -136.92171 12.349004 -152.05049 -22.906584 147.02631
4288000000 -18.689707 67.274536 -36.196678 -144.00354 12.345247 -159.145 -22.818871 141.65509
4289000000 -18.621689 60.742725 -36.206081 -151.24777 12.343869 -166.257 -22.689295 136.07356
4290000000 -18.549686 54.060661 -36.195358 -158.22951 12.337052 -173.358 -22.639463 130.50725
4291000000 -18.471537 47.456375 -36.202572 -165.35603 12.338463 179.51111 -22.563738 124.70094
4292000000 -18.404621 40.95644 -36.211094 -172.50871 12.338932 172.44321 -22.522041 118.77348
4293000000 -18.33923 34.243572 -36.220146 -179.60143 12.335708 165.31889 -22.440506 112.77087
4294000000 -18.283262 27.692633 -36.225574 173.24535 12.338447 158.22395 -22.441206 106.87163
4295000000 -18.206202 21.31789 -36.227394 166.21104 12.335297 151.13081 -22.424122 100.97892
4296000000 -18.165255 14.790705 -36.237869 159.1382 12.332125 143.994 -22.392523 94.710831
4297000000 -18.138182 8.192585 -36.244324 151.94608 12.33415 136.91473 -22.407263 88.870781
4298000000 -18.093653 1.8167616 -36.243366 144.93611 12.333129 129.83441 -22.377359 82.615562
4299000000 -18.053507 -4.6775889 -36.242504 137.70799 12.331832 122.73577 -22.432785 76.464584
4300000000 -18.008783 -11.156545 -36.25568 130.65067 12.328782 115.59065 -22.452421 70.318848
4301000000 -18.021698 -17.461489 -36.240238 123.64133 12.3302 108.5122 -22.508949 63.930565
4302000000 -17.999115 -23.968523 -36.259701 116.5519 12.330021 101.41064 -22.505535 57.819927
4303000000 -17.964476 -30.498503 -36.244801 109.47297 12.332758 94.299583 -22.595091 51.251652
4304000000 -17.974768 -36.808018 -36.258839 102.36503 12.335997 87.221695 -22.671108 44.751835
4305000000 -17.973724 -43.334011 -36.25145 95.269211 12.339082 80.131248 -22.734592 38.493179
4306000000 -17.992966 -49.904118 -36.260715 88.254463 12.336351 73.022469 -22.814003 32.324497
4307000000 -17.994381 -56.154724 -36.251343 81.172783 12.338897 65.908424 -22.907478 25.605986
4308000000 -17.993507 -62.517338 -36.269127 74.024231 12.337 58.807716 -23.017921 19.293301
4309000000 -18.013655 -68.999535 -36.277782 66.997658 12.338552 51.743931 -23.194717 12.748746
4310000000 -18.070917 -75.459457 -36.278847 59.874676 12.346414 44.622372 -23.325722 6.2309041
4311000000 -18.103899 -81.919975 -36.275635 52.745159 12.345654 37.520283 -23.460239 -0.24859327
4312000000 -18.135014 -88.338066 -36.285461 45.745792 12.351251 30.38369 -23.629013 -6.7905631
4313000000 -18.173374 -95.004463 -36.273556 38.606201 12.350222 23.277386 -23.856308 -13.304955
4314000000 -18.212448 -101.50677 -36.275112 31.502356 12.355267 16.180529 -24.120909 -19.925804
4315000000 -18.250221 -107.90064 -36.275284 24.362499 12.35944 9.0953407 -24.330879 -26.811049
4316000000 -18.297564 -114.44674 -36.282284 17.285048 12.362992 1.9502113 -24.624546 -33.981625
4317000000 -18.340466 -121.1674 -36.281055 10.264496 12.363685 -5.165134 -24.924322 -40.51255
4318000000 -18.358582 -127.76431 -36.279087 3.1616848 12.36992 -12.274744 -25.241539 -47.707794
4319000000 -18.402128 -134.11658 -36.272339 -3.9429145 12.37058 -19.4189 -25.66387 -54.60873
4320000000 -18.459501 -140.77011 -36.267796 -11.046678 12.377041 -26.510435 -25.985641 -62.329506
4321000000 -18.501806 -147.34317 -36.285419 -18.253925 12.375778 -33.635002 -26.449018 -70.034027
4322000000 -18.52268 -154.062 -36.268982 -25.380587 12.376137 -40.773121 -26.910681 -78.079758
4323000000 -18.567825 -160.69325 -36.279518 -32.448978 12.380734 -47.918011 -27.494213 -86.38485
4324000000 -18.577093 -167.25089 -36.271004 -39.501892 12.384124 -55.04784 -28.053537 -95.313805
4325000000 -18.610355 -173.86447 -36.276272 -46.777969 12.388622 -62.153191 -28.534489 -104.96588
4326000000 -18.609167 179.38113 -36.273891 -53.758572 12.386318 -69.285019 -29.127176 -115.12892
4327000000 -18.626228 172.80261 -36.292595 -60.859596 12.389385 -76.455338 -29.592178 -126.22961
4328000000 -18.604891 166.17627 -36.281178 -68.042618 12.391436 -83.578171 -30.145575 -137.67072
4329000000 -18.605232 159.4024 -36.28949 -75.049286 12.387336 -90.765862 -30.525303 -151.02338
4330000000 -18.615396 152.817 -36.294468 -82.205978 12.391257 -97.886879 -30.871273 -165.10701
4331000000 -18.608154 146.29082 -36.291782 -89.437233 12.393765 -105.0406 -30.946825 -179.72472
4332000000 -18.559219 139.62967 -36.296074 -96.622093 12.394337 -112.17913 -30.871414 165.56454
4333000000 -18.514286 133.22118 -36.311584 -103.69136 12.389692 -119.28851 -30.429821 151.27072
4334000000 -18.474043 126.53648 -36.312141 -110.72736 12.390367 -126.49237 -29.874836 137.63403
4335000000 -18.439386 119.85658 -36.309628 -117.84754 12.387385 -133.59047 -29.130779 125.59515
4336000000 -18.361591 113.2594 -36.31842 -124.9823 12.382677 -140.75316 -28.422491 113.85929
4337000000 -18.305851 106.64593 -36.332493 -132.11952 12.382468 -147.88271 -27.577005 103.23373
4338000000 -18.228216 100.11564 -36.333767 -139.28143 12.374287 -155.04773 -26.812263 93.501701
4339000000 -18.176365 93.511429 -36.331657 -146.45091 12.376379 -162.19235 -26.051058 84.569412
4340000000 -18.105255 86.889496 -36.346252 -153.5081 12.366982 -169.33336 -25.344864 76.769814
4341000000 -18.030983 80.490234 -36.355045 -160.44746 12.365236 -176.44066 -24.613184 68.548409
4342000000 -17.922915 73.978569 -36.35725 -167.625 12.36218 176.41396 -23.937654 61.219261
4343000000 -17.830496 67.672569 -36.382126 -174.79773 12.351437 169.2588 -23.275368 54.117466
4344000000 -17.774441 61.145611 -36.372417 178.06621 12.343548 162.12953 -22.686167 47.426285
4345000000 -17.67173 54.577469 -36.382668 171.00752 12.342484 155.01738 -22.093222 40.881367
4346000000 -17.603842 48.198738 -36.403503 163.91248 12.330219 147.9111 -21.590096 34.547462
4347000000 -17.504255 41.735512 -36.410976 156.82976 12.325546 140.77461 -21.080898 28.535112
4348000000 -17.413921 35.254051 -36.422375 149.71916 12.317296 133.65851 -20.602686 22.478062
4349000000 -17.349705 28.826521 -36.430939 142.63483 12.312454 126.55268 -20.204714 16.437025
4350000000 -17.241539 22.372732 -36.447414 135.71106 12.304417 119.43529 -19.776684 10.705709
4351000000 -17.17865 15.947762 -36.446316 128.48218 12.297597 112.32423 -19.399748 4.8607154
4352000000 -17.106613 9.6189489 -36.459087 121.43786 12.292959 105.27576 -19.066093 -0.66499215
4353000000 -17.033739 3.077759 -36.461559 114.3889 12.280613 98.14962 -18.73881 -6.2867007
4354000000 -16.966757 -3.3614192 -36.475315 107.25645 12.274247 91.084831 -18.449198 -11.819798
4355000000 -16.918232 -9.7883463 -36.480682 100.38138 12.271783 83.998779 -18.171827 -17.002512
4356000000 -16.845007 -16.288948 -36.475445 93.167229 12.263 76.92881 -17.946978 -22.388563
4357000000 -16.818771 -22.90498 -36.495506 86.2547 12.26002 69.83503 -17.694357 -27.83602
4358000000 -16.765173 -29.366804 -36.494141 79.249161 12.252645 62.764755 -17.509089 -33.072182
4359000000 -16.713856 -35.860001 -36.513977 72.170967 12.24929 55.669876 -17.352247 -38.327415
4360000000 -16.677391 -42.393574 -36.5042 65.085617 12.248212 48.612263 -17.198732 -43.481174
4361000000 -16.662535 -48.916561 -36.523872 58.079689 12.245458 41.572392 -17.076332 -48.666008
4362000000 -16.62846 -55.471977 -36.526062 50.977592 12.240973 34.51165 -16.953253 -53.832844
4363000000 -16.60408 -61.954502 -36.515404 44.002167 12.240768 27.427029 -16.865168 -58.989502
4364000000 -16.615761 -68.466492 -36.534279 36.998535 12.242132 20.354969 -16.822321 -64.074806
4365000000 -16.612226 -75.070862 -36.531937 30.07946 12.239188 13.318244 -16.78631 -69.220009
4366000000 -16.629124 -81.677986 -36.530003 22.90287 12.238485 6.2793736 -16.77401 -74.3069
4367000000 -16.633829 -88.418716 -36.538441 15.98573 12.241298 -0.79185992 -16.778582 -79.47715
4368000000 -16.646814 -95.122902 -36.513355 8.9695415 12.244407 -7.890419 -16.830307 -84.688477
4369000000 -16.663033 -101.6386 -36.526196 1.8380991 12.249185 -14.934489 -16.873072 -89.894691
4370000000 -16.698223 -108.34036 -36.51498 -5.1928678 12.252301 -22.010923 -16.951227 -94.988907
4371000000 -16.722027 -115.063 -36.514988 -12.101039 12.251514 -29.07366 -17.051186 -100.10212
4372000000 -16.730116 -121.72315 -36.517208 -19.123358 12.262486 -36.15374 -17.192802 -105.32999
4373000000 -16.785036 -128.42838 -36.511444 -26.27886 12.268799 -43.217579 -17.367428 -110.61673
4374000000 -16.795723 -135.26181 -36.486542 -33.336254 12.27458 -50.307652 -17.552238 -115.81513
4375000000 -16.861444 -141.85522 -36.492939 -40.328148 12.278628 -57.393944 -17.781311 -121.17941
4376000000 -16.877157 -148.60287 -36.502338 -47.503975 12.287012 -64.49617 -18.023905 -126.5032
4377000000 -16.915106 -155.30472 -36.476543 -54.445057 12.293109 -71.585037 -18.315031 -131.99838
4378000000 -16.929762 -162.14342 -36.450325 -61.475147 12.303835 -78.668793 -18.632692 -137.53868
4379000000 -16.982662 -168.90071 -36.454605 -68.580307 12.308846 -85.782005 -18.97864 -143.03378
4380000000 -17.027893 -175.64926 -36.459518 -75.610641 12.319493 -92.907936 -19.347248 -148.63571
4381000000 -17.041634 177.62886 -36.447704 -82.781708 12.32566 -100.00231 -19.820103 -154.52779
4382000000 -17.087248 170.82178 -36.424267 -89.791786 12.332873 -107.1471 -20.319948 -160.67737
4383000000 -17.091347 164.18954 -36.428246 -96.833542 12.338264 -114.28339 -20.869078 -166.81122
4384000000 -17.121059 157.36003 -36.409199 -103.94727 12.351865 -121.4155 -21.450573 -173.17599
4385000000 -17.13789 150.74675 -36.420971 -111.16441 12.354333 -128.5806 -22.100851 -179.97641
4386000000 -17.161507 144.13983 -36.41161 -118.18369 12.360476 -135.73396 -22.8207 172.78442
4387000000 -17.159586 137.33832 -36.406364 -125.35622 12.363851 -142.85048 -23.633705 165.14626
4388000000 -17.17395 130.70659 -36.393017 -132.44743 12.372471 -150.02318 -24.520384 156.68089
4389000000 -17.167221 124.19971 -36.387436 -139.62657 12.380862 -157.20961 -25.47801 147.22476
4390000000 -17.14934 117.65364 -36.375076 -146.62511 12.388618 -164.36284 -26.530096 136.52281
4391000000 -17.151398 111.05112 -36.363922 -153.9399 12.385809 -171.52824 -27.593567 124.11484
4392000000 -17.126776 104.47611 -36.378666 -161.00769 12.385774 -178.70221 -28.581198 110.05116
4393000000 -17.088896 98.029388 -36.363613 -168.08626 12.39145 174.12209 -29.533554 92.843002
4394000000 -17.080378 91.546638 -36.356216 -175.18909 12.387788 166.96277 -29.954388 73.659134
4395000000 -17.03565 85.176125 -36.360226 177.63704 12.389328 159.80063 -29.73225 54.384624
4396000000 -16.983242 78.631432 -36.354195 170.44164 12.387706 152.61542 -29.159294 35.542709
4397000000 -16.953716 72.291 -36.35881 163.28616 12.387985 145.47078 -28.148611 19.425343
4398000000 -16.913733 65.883003 -36.353832 156.14508 12.381761 138.25035 -27.096186 5.1967154
4399000000 -16.853621 59.408882 -36.366966 148.98688 12.378801 131.07965 -25.892832 -6.1928306
4400000000 -16.797928 53.085716 -36.342575 141.96114 12.372567 123.9238 -24.876846 -16.131979
4401000000 -16.759127 46.645504 -36.348507 134.71722 12.367456 116.75594 -23.854279 -25.25276
4402000000 -16.696066 40.374413 -36.352905 127.6308 12.361958 109.60063 -22.971987 -33.372986
4403000000 -16.620878 34.103653 -36.353565 120.55594 12.353816 102.42538 -22.133942 -40.777294
4404000000 -16.564953 27.73381 -36.348457 113.29019 12.346995 95.314705 -21.392973 -47.934368
4405000000 -16.512369 21.425066 -36.354958 106.16514 12.340289 88.121605 -20.716537 -54.65028
4406000000 -16.443901 14.995083 -36.370186 99.071968 12.33132 80.992439 -20.100084 -61.02718
4407000000 -16.37755 8.570118 -36.369411 91.858711 12.319042 73.847351 -19.542791 -67.182831
4408000000 -16.329552 2.4044604 -36.383636 84.777435 12.306476 66.707893 -19.006586 -73.263924
4409000000 -16.261112 -4.0956388 -36.390865 77.617424 12.302107 59.609493 -18.57202 -79.086838
4410000000 -16.198317 -10.396247 -36.39341 70.542831 12.287613 52.472042 -18.130213 -84.965416
4411000000 -16.177393 -16.73424 -36.401119 63.50029 12.278492 45.366112 -17.768551 -90.676102
4412000000 -16.113733 -23.273659 -36.39122 56.254044 12.269683 38.252968 -17.429987 -96.269684
4413000000 -16.080444 -29.58643 -36.418858 49.195232 12.260209 31.149525 -17.149323 -101.75471
4414000000 -16.04195 -36.119068 -36.416473 42.135864 12.249818 24.067211 -16.85424 -107.35102
4415000000 -16.002831 -42.53907 -36.436016 35.076824 12.240415 16.993809 -16.624775 -112.80871
4416000000 -15.976918 -48.979523 -36.441223 27.986572 12.235428 9.8879108 -16.400757 -118.29061
4417000000 -15.943839 -55.469627 -36.438839 20.951136 12.226556 2.793463 -16.200096 -123.63336
4418000000 -15.940654 -61.925892 -36.457653 13.779521 12.215463 -4.2265744 -16.054859 -129.1264
4419000000 -15.894616 -68.557129 -36.457546 6.7012253 12.207873 -11.32743 -15.928909 -134.59286
4420000000 -15.875854 -75.019798 -36.464638 -0.24191189 12.205033 -18.38196 -15.810828 -140.0298
4421000000 -15.866186 -81.744781 -36.478817 -7.4598508 12.197734 -25.477636 -15.726422 -145.56123
4422000000 -15.880257 -88.226212 -36.471973 -14.49033 12.19283 -32.534508 -15.660753 -150.96344
4423000000 -15.856809 -94.953041 -36.467606 -21.592653 12.198741 -39.611599 -15.61496 -156.46982
4424000000 -15.856752 -101.39371 -36.470589 -28.490561 12.190552 -46.646202 -15.588098 -161.87318
4425000000 -15.863944 -108.18857 -36.473007 -35.606354 12.186634 -53.697727 -15.591965 -167.41006
4426000000 -15.885571 -114.78491 -36.481541 -42.7216 12.184932 -60.784218 -15.604376 -173.127
4427000000 -15.879251 -121.4582 -36.458641 -49.695934 12.191826 -67.84745 -15.633034 -178.63443
4428000000 -15.898088 -128.34286 -36.477722 -56.856346 12.185384 -74.913925 -15.703006 175.70483
4429000000 -15.902796 -135.06697 -36.481884 -63.954594 12.191697 -81.974976 -15.77476 170.00169
4430000000 -15.930097 -141.77533 -36.455647 -70.962936 12.200306 -89.024384 -15.871305 164.22972
4431000000 -15.930098 -148.68832 -36.459076 -78.012619 12.200317 -96.118919 -15.994853 158.46582
4432000000 -15.956661 -155.48653 -36.450348 -85.09127 12.202634 -103.19274 -16.115536 152.58112
4433000000 -15.976384 -162.21906 -36.445667 -92.192856 12.205206 -110.25922 -16.279375 146.5583
4434000000 -16.01396 -168.99936 -36.43433 -99.134346 12.211102 -117.33444 -16.445267 140.54843
4435000000 -16.024063 -175.88168 -36.428459 -106.34351 12.217991 -124.45185 -16.638845 134.50224
4436000000 -16.029879 177.29134 -36.417515 -113.34785 12.219748 -131.54366 -16.823355 128.28644
4437000000 -16.062204 170.51173 -36.421829 -120.52281 12.229893 -138.63098 -17.055601 121.83273
4438000000 -16.083769 163.8429 -36.390198 -127.60643 12.235281 -145.74158 -17.29236 115.45113
4439000000 -16.091555 156.98279 -36.378235 -134.76097 12.237809 -152.84438 -17.562603 108.79857
4440000000 -16.11624 150.16745 -36.377384 -141.7515 12.244826 -159.98256 -17.817635 102.04375
4441000000 -16.116522 143.38989 -36.386253 -149.13271 12.252668 -167.09157 -18.128462 95.190041
4442000000 -16.133213 136.66191 -36.386826 -156.08678 12.255956 -174.19897 -18.413948 87.961121
4443000000 -16.158455 130.02315 -36.351231 -163.31339 12.262997 178.66479 -18.727119 80.802994
4444000000 -16.139248 123.16909 -36.36982 -170.41223 12.267029 171.52654 -19.054649 72.982155
4445000000 -16.135279 116.55707 -36.341244 -177.51157 12.272349 164.40193 -19.394814 65.455063
4446000000 -16.149296 110.10423 -36.323429 175.31841 12.27932 157.25331 -19.722429 57.478741
4447000000 -16.149517 103.36159 -36.347683 168.20663 12.279669 150.12233 -20.08416 49.14901
4448000000 -16.141081 96.93618 -36.334957 160.97781 12.282917 142.97263 -20.403172 40.521091
4449000000 -16.143284 90.296211 -36.347404 153.83467 12.285705 135.82587 -20.705345 31.662651
4450000000 -16.127226 83.799896 -36.329563 146.73671 12.288724 128.66496 -21.006533 22.325714
4451000000 -16.091583 77.449524 -36.330982 139.33131 12.290941 121.48153 -21.285162 12.73088
4452000000 -16.080448 70.837257 -36.322163 132.24535 12.291924 114.35519 -21.50819 2.9010885
4453000000 -16.053761 64.424644 -36.336788 125.11649 12.294714 107.16792 -21.709698 -7.1481991
4454000000 -16.024731 58.041931 -36.346252 117.88885 12.292952 100.00336 -21.808178 -17.52771
4455000000 -15.998911 51.86858 -36.341324 110.77728 12.294924 92.857674 -21.841267 -27.515076
4456000000 -15.991491 45.571064 -36.344456 103.59841 12.289481 85.685875 -21.874432 -38.008667
4457000000 -15.964874 39.147503 -36.344875 96.3713 12.290512 78.533104 -21.798674 -48.369114
4458000000 -15.934154 32.883362 -36.354942 89.155449 12.291273 71.386696 -21.699856 -58.449951
4459000000 -15.894025 26.657022 -36.369732 82.085388 12.282742 64.21051 -21.550917 -68.725365
4460000000 -15.862768 20.333557 -36.372139 74.900574 12.280184 57.059029 -21.369553 -78.612053
4461000000 -15.827297 14.121864 -36.376972 67.814346 12.281527 49.90089 -21.12513 -88.234375
4462000000 -15.801529 7.9282694 -36.384659 60.620327 12.275254 42.756424 -20.864466 -97.537544
4463000000 -15.787505 1.7569236 -36.384926 53.493183 12.268446 35.612129 -20.60037 -106.71137
4464000000 -15.743176 -4.5263171 -36.39753 46.252659 12.264666 28.428577 -20.301243 -115.41603
4465000000 -15.732123 -10.761699 -36.394592 39.203384 12.258223 21.297167 -20.047026 -124.0974
4466000000 -15.690899 -17.023705 -36.410282 32.036434 12.253386 14.139817 -19.760679 -132.62973
4467000000 -15.66304 -23.291889 -36.41399 24.868656 12.244171 7.0106807 -19.475563 -140.75616
4468000000 -15.640467 -29.41292 -36.426899 17.833576 12.23515 -0.13951539 -19.207125 -148.9183
4469000000 -15.602026 -35.659676 -36.418507 10.723245 12.233939 -7.2924657 -18.945459 -156.85226
4470000000 -15.607175 -41.802879 -36.437431 3.5573676 12.223218 -14.439969 -18.68532 -164.72971
4471000000 -15.594241 -48.084614 -36.468914 -3.5157914 12.213338 -21.541471 -18.434542 -172.32259
4472000000 -15.580276 -54.562744 -36.472515 -10.6711 12.208027 -28.68981 -18.216246 -179.81949
4473000000 -15.573251 -60.78384 -36.467491 -17.740908 12.197824 -35.817863 -17.992104 172.52802
4474000000 -15.540928 -67.041992 -36.472282 -24.94591 12.192392 -42.929283 -17.775579 165.19803
4475000000 -15.536787 -73.426559 -36.472939 -32.048962 12.185306 -50.022697 -17.57937 157.8559
4476000000 -15.534019 -79.754715 -36.489819 -39.110657 12.176063 -57.179443 -17.390308 150.6274
4477000000 -15.541673 -86.188461 -36.500671 -46.25856 12.168185 -64.268867 -17.199656 143.42314
4478000000 -15.547955 -92.710548 -36.503761 -53.328457 12.158715 -71.382088 -17.036491 136.21246
4479000000 -15.542327 -99.171181 -36.512405 -60.412258 12.151759 -78.477303 -16.846773 129.15013
4480000000 -15.534231 -105.61578 -36.518059 -67.526756 12.145638 -85.602097 -16.711433 122.07346
4481000000 -15.55553 -112.14966 -36.526672 -74.598152 12.131566 -92.705513 -16.554605 115.11298
4482000000 -15.549434 -118.63211 -36.515602 -81.681015 12.129294 -99.804535 -16.405499 108.23975
4483000000 -15.567092 -125.3951 -36.529884 -88.984062 12.1205 -106.92183 -16.274075 101.3258
4484000000 -15.579929 -131.95132 -36.531296 -96.077621 12.109471 -113.98687 -16.13599 94.41362
4485000000 -15.591181 -138.53452 -36.555428 -103.09929 12.107106 -121.08001 -16.01391 87.616722
4486000000 -15.590793 -145.3091 -36.558498 -110.20417 12.099385 -128.17094 -15.904382 80.869774
4487000000 -15.607767 -151.97437 -36.566341 -117.39921 12.095217 -135.24762 -15.805759 74.114471
4488000000 -15.628745 -158.63733 -36.561333 -124.38474 12.088264 -142.33125 -15.704474 67.383392
4489000000 -15.626851 -165.47549 -36.58366 -131.48482 12.082435 -149.41769 -15.595358 60.753311
4490000000 -15.657194 -172.24597 -36.555389 -138.52362 12.080424 -156.47395 -15.503847 54.109623
4491000000 -15.664638 -178.92024 -36.569481 -145.67247 12.07715 -163.57475 -15.443179 47.515224
4492000000 -15.681337 174.06834 -36.587982 -152.82443 12.068991 -170.66048 -15.356833 40.989529
4493000000 -15.694662 167.24591 -36.594456 -159.88907 12.071137 -177.73001 -15.301453 34.541
4494000000 -15.697303 160.47458 -36.586094 -166.93877 12.067247 175.17201 -15.244725 28.099131
4495000000 -15.721476 153.50316 -36.604717 -174.04018 12.064923 168.09352 -15.18777 21.653893
4496000000 -15.719928 146.64995 -36.588432 178.83614 12.056579 161.02155 -15.14458 15.244199
4497000000 -15.736854 139.74043 -36.611637 171.74467 12.061099 153.94737 -15.117401 8.8264351
4498000000 -15.730842 132.83531 -36.61739 164.73923 12.057528 146.85686 -15.11513 2.4592812
4499000000 -15.742078 125.8707 -36.617619 157.59784 12.05804 139.79845 -15.087793 -3.8674252
4500000000 -15.741375 118.93966 -36.6287 150.49796 12.058116 132.71483 -15.094925 -10.248004
4501000000 -15.740688 112.06135 -36.627701 143.39159 12.057795 125.61644 -15.113614 -16.623573
4502000000 -15.74414 105.204 -36.632305 136.37177 12.059886 118.56617 -15.124544 -22.949718
4503000000 -15.745502 98.385376 -36.626247 129.21861 12.059316 111.47686 -15.18193 -29.264431
4504000000 -15.749359 91.508087 -36.633099 122.08793 12.059197 104.38194 -15.21969 -35.738049
4505000000 -15.720191 84.694603 -36.627251 114.8619 12.063465 97.284943 -15.269855 -42.128765
4506000000 -15.728127 77.761192 -36.629704 107.91884 12.064458 90.17627 -15.349354 -48.5089
4507000000 -15.70532 70.986725 -36.634899 100.8544 12.067535 83.092072 -15.439189 -54.93512
4508000000 -15.697351 64.310921 -36.645107 93.665443 12.071302 76.012764 -15.534436 -61.463478
4509000000 -15.6871 57.474075 -36.617912 86.561577 12.076124 68.908417 -15.641771 -67.9161
4510000000 -15.661151 50.77829 -36.614044 79.477173 12.080193 61.803574 -15.776473 -74.530373
4511000000 -15.683712 44.185867 -36.625793 72.19278 12.08414 54.686836 -15.917253 -81.266212
4512000000 -15.670124 37.433926 -36.63961 65.233727 12.086038 47.554752 -16.080217 -88.084206
4513000000 -15.631811 30.83112 -36.613224 58.053944 12.09291 40.456787 -16.25897 -94.804321
4514000000 -15.613025 24.207069 -36.619877 50.91988 12.09633 33.302242 -16.445415 -101.90298
4515000000 -15.59515 17.704306 -36.626183 43.857006 12.099764 26.19318 -16.659376 -108.85416
4516000000 -15.585671 11.262438 -36.644329 36.685612 12.105228 19.043043 -16.898615 -116.17623
4517000000 -15.57392 4.771215 -36.631546 29.587448 12.106892 11.939135 -17.130901 -123.49924
4518000000 -15.562791 -1.6309514 -36.62429 22.52367 12.113645 4.7836514 -17.387245 -131.07278
4519000000 -15.533906 -7.9107423 -36.636757 15.29589 12.114161 -2.341049 -17.663582 -138.72231
4520000000 -15.540559 -14.365028 -36.618671 8.1333847 12.120196 -9.5188751 -17.933916 -146.89525
4521000000 -15.496016 -20.777178 -36.627758 0.98168653 12.117497 -16.704521 -18.227289 -155.15123
4522000000 -15.509625 -27.072746 -36.625889 -6.1513209 12.118339 -23.804077 -18.498262 -163.73434
4523000000 -15.481397 -33.331516 -36.636154 -13.350224 12.12376 -30.988579 -18.781054 -172.76018
4524000000 -15.471763 -39.581772 -36.637718 -20.436064 12.123416 -38.155567 -19.058899 178.19214
4525000000 -15.459163 -45.825649 -36.649605 -27.652185 12.119142 -45.315517 -19.307217 168.65543
4526000000 -15.4381 -52.101273 -36.654892 -34.895042 12.118214 -52.484074 -19.527781 158.89352
4527000000 -15.432368 -58.222294 -36.662792 -41.964252 12.117895 -59.695683 -19.714548 148.56404
4528000000 -15.431256 -64.556091 -36.66069 -49.187935 12.11554 -66.839561 -19.836721 138.03065
4529000000 -15.395793 -70.754944 -36.670925 -56.402668 12.109959 -74.002548 -19.891615 127.49585
4530000000 -15.386444 -77.137642 -36.693432 -63.479309 12.109578 -81.184486 -19.913752 116.70528
4531000000 -15.369325 -83.347878 -36.686764 -70.770035 12.096088 -88.352791 -19.82704 106.02147
4532000000 -15.339449 -89.50853 -36.693707 -77.793678 12.09954 -95.559959 -19.658819 95.143387
4533000000 -15.326571 -95.835152 -36.704208 -85.148552 12.084551 -102.70304 -19.448048 84.684547
4534000000 -15.313767 -102.19894 -36.708527 -92.161003 12.079623 -109.87419 -19.179138 74.624123
4535000000 -15.30325 -108.54987 -36.732018 -99.371208 12.071166 -117.03659 -18.866039 64.773537
4536000000 -15.270987 -114.84847 -36.764675 -106.4815 12.059318 -124.22462 -18.512541 55.322407
4537000000 -15.26096 -121.27617 -36.767086 -113.74303 12.046492 -131.34784 -18.16839 45.939236
4538000000 -15.242887 -127.66199 -36.793064 -120.79144 12.031199 -138.5074 -17.751514 37.187256
4539000000 -15.221799 -134.12598 -36.794903 -127.94904 12.021332 -145.70219 -17.373856 28.643671
4540000000 -15.196412 -140.56987 -36.822269 -135.1595 12.012338 -152.79881 -16.975698 20.679911
4541000000 -15.186244 -147.08144 -36.846527 -142.18109 11.994146 -159.94243 -16.617605 12.710082
4542000000 -15.145631 -153.61961 -36.851681 -149.31799 11.982826 -167.08565 -16.228495 5.0824986
4543000000 -15.116739 -160.2144 -36.859848 -156.43471 11.968451 -174.17596 -15.884363 -2.2282641
4544000000 -15.100655 -166.8261 -36.891731 -163.58806 11.947365 178.67091 -15.547836 -9.3676348
4545000000 -15.086493 -173.43633 -36.907383 -170.5903 11.937132 171.57607 -15.229629 -16.260138
4546000000 -15.038849 179.89777 -36.916225 -177.7636 11.922128 164.46645 -14.949203 -23.217457
4547000000 -15.029422 173.18613 -36.940987 175.21931 11.904316 157.34746 -14.663929 -29.864689
4548000000 -15.005515 166.49358 -36.953411 168.14638 11.895471 150.29906 -14.389363 -36.304634
4549000000 -14.966502 159.8148 -36.975517 160.97717 11.880742 143.20691 -14.157745 -42.713112
4550000000 -14.960701 153.0937 -36.99572 153.84361 11.866432 136.13254 -13.936809 -49.040245
4551000000 -14.929532 146.25195 -37.009262 146.89375 11.848532 129.05405 -13.731004 -55.310455
4552000000 -14.89616 139.5555 -37.026081 139.75369 11.837476 121.96498 -13.548011 -61.426277
4553000000 -14.877488 132.69806 -37.047352 132.77037 11.825933 114.91605 -13.365949 -67.450111
4554000000 -14.848197 125.96985 -37.065838 125.77236 11.811422 107.89344 -13.213388 -73.394165
4555000000 -14.835153 119.10374 -37.091667 118.69537 11.802519 100.84827 -13.085498 -79.368958
4556000000 -14.80162 112.28127 -37.109051 111.57556 11.789334 93.781364 -12.975241 -85.305771
4557000000 -14.784964 105.54101 -37.097702 104.6351 11.783677 86.792503 -12.861684 -91.15052
4558000000 -14.751917 98.797264 -37.128662 97.623009 11.770868 79.746864 -12.792238 -97.096031
4559000000 -14.729885 91.940834 -37.126869 90.702103 11.765893 72.712463 -12.725075 -102.88902
4560000000 -14.71386 85.099144 -37.124264 83.585899 11.761922 65.690186 -12.685232 -108.63309
4561000000 -14.690361 78.336792 -37.135124 76.519096 11.761502 58.654053 -12.640862 -114.44616
4562000000 -14.671544 71.508499 -37.150963 69.60128 11.755196 51.611393 -12.622675 -120.33158
4563000000 -14.656954 64.810265 -37.160522 62.402016 11.7537 44.607224 -12.624516 -126.15665
4564000000 -14.640841 57.981533 -37.147957 55.518696 11.756436 37.589565 -12.639977 -131.97893
4565000000 -14.632571 51.389336 -37.16291 48.523655 11.754533 30.566282 -12.674312 -137.81903
4566000000 -14.598137 44.748554 -37.165577 41.453693 11.754415 23.51848 -12.722766 -143.78751
4567000000 -14.577951 38.031181 -37.166882 34.489067 11.75772 16.523218 -12.798347 -149.61598
4568000000 -14.570738 31.259823 -37.177509 27.507454 11.760648 9.4850731 -12.888027 -155.59079
4569000000 -14.576015 24.862112 -37.182983 20.321869 11.762913 2.4279375 -12.990053 -161.58015
4570000000 -14.566315 18.296587 -37.14418 13.307562 11.769352 -4.5960484 -13.110313 -167.63376
4571000000 -14.556158 11.683591 -37.151997 6.328506 11.779272 -11.655476 -13.256166 -173.80299
4572000000 -14.564341 5.1259532 -37.168167 -0.67608225 11.786603 -18.723246 -13.427475 179.91171
4573000000 -14.558269 -1.3797073 -37.170334 -7.7844682 11.796337 -25.78054 -13.598695 173.71111
4574000000 -14.559119 -7.8527217 -37.144222 -14.811132 11.808043 -32.810768 -13.802066 167.29375
4575000000 -14.551053 -14.201971 -37.135612 -21.989134 11.814584 -39.936371 -14.040544 160.66161
4576000000 -14.555475 -20.783577 -37.132751 -29.024776 11.824148 -47.019112 -14.276841 153.98468
4577000000 -14.5836 -27.062983 -37.131809 -36.073631 11.833955 -54.098087 -14.532868 147.10846
4578000000 -14.604878 -33.513546 -37.122032 -43.060814 11.84846 -61.215721 -14.821586 140.00153
4579000000 -14.60293 -39.689571 -37.11364 -50.167953 11.856004 -68.299561 -15.113162 132.72816
4580000000 -14.615829 -46.089748 -37.100594 -57.344677 11.868627 -75.443298 -15.414932 125.36272
4581000000 -14.624946 -52.423267 -37.114628 -64.348305 11.877009 -82.577087 -15.728729 117.38964
4582000000 -14.647713 -58.803825 -37.090664 -71.627037 11.888043 -89.707191 -16.077501 109.44491
4583000000 -14.677347 -65.038315 -37.089619 -78.627129 11.901077 -96.876686 -16.421036 101.07568
4584000000 -14.689768 -71.404503 -37.081501 -85.860016 11.910797 -104.02018 -16.752047 92.356789
4585000000 -14.711613 -77.763535 -37.074329 -93.052071 11.913223 -111.23817 -17.077168 83.309952
4586000000 -14.724999 -83.981369 -37.068687 -100.14821 11.921058 -118.37019 -17.374636 73.996452
4587000000 -14.758663 -90.20266 -37.070175 -107.27872 11.928582 -125.53933 -17.615877 64.007858
4588000000 -14.759634 -96.590477 -37.076176 -114.56711 11.933943 -132.75003 -17.848095 54.004288
4589000000 -14.782496 -103.01307 -37.069279 -121.63747 11.9342 -139.92088 -18.030497 43.624653
4590000000 -14.781473 -109.26266 -37.066044 -128.76526 11.939263 -147.10321 -18.11931 33.073723
4591000000 -14.802372 -115.76334 -37.071926 -136.08806 11.93915 -154.33153 -18.172802 22.288694
4592000000 -14.812716 -122.08525 -37.086426 -143.17453 11.939763 -161.5181 -18.1231 11.616602
4593000000 -14.811388 -128.51122 -37.072506 -150.39301 11.940031 -168.69916 -18.022385 1.1203616
4594000000 -14.818408 -135.15558 -37.096191 -157.57909 11.933471 -175.90707 -17.851532 -9.3161869
4595000000 -14.83486 -141.43245 -37.098591 -164.61046 11.931746 176.89522 -17.637611 -19.649729
4596000000 -14.830547 -148.06741 -37.111248 -171.9406 11.922487 169.70392 -17.369823 -29.26018
4597000000 -14.812652 -154.4637 -37.096489 -179.17986 11.918817 162.50108 -17.086636 -38.830448
4598000000 -14.808555 -161.10327 -37.129166 173.71204 11.908009 155.32094 -16.779009 -47.870026
4599000000 -14.785234 -167.65147 -37.136852 166.53888 11.89909 148.13673 -16.450556 -56.684525
4600000000 -14.791932 -174.34946 -37.158352 159.45313 11.884546 140.93129 -16.133726 -65.226624
4601000000 -14.765874 179.11078 -37.161983 152.26053 11.87805 133.79926 -15.806766 -73.410301
4602000000 -14.750755 172.4035 -37.176674 145.08224 11.860531 126.64858 -15.507503 -81.321808
4603000000 -14.713274 165.66229 -37.209904 137.9689 11.853184 119.47103 -15.212836 -89.078331
4604000000 -14.690611 158.91808 -37.216499 130.87511 11.83682 112.31322 -14.913359 -96.679138
4605000000 -14.646442 152.1703 -37.2271 123.67287 11.823959 105.14892 -14.649296 -103.8483
4606000000 -14.626549 145.4922 -37.245201 116.61517 11.806146 98.034775 -14.404406 -111.12407
4607000000 -14.582229 138.69928 -37.24865 109.40946 11.793335 90.906792 -14.156228 -118.12112
4608000000 -14.541153 132.06488 -37.307701 102.28668 11.773808 83.774734 -13.937975 -124.9801
4609000000 -14.510345 125.30462 -37.296368 95.199776 11.756968 76.653618 -13.749735 -131.82953
4610000000 -14.456659 118.44294 -37.322514 88.090065 11.740182 69.547997 -13.555665 -138.53714
4611000000 -14.417297 111.80516 -37.331791 81.206223 11.729916 62.479469 -13.383435 -145.24757
4612000000 -14.366877 104.96416 -37.36417 74.054268 11.714348 55.369938 -13.237418 -151.80908
4613000000 -14.333234 98.262276 -37.396683 67.024879 11.701399 48.280949 -13.105152 -158.33386
4614000000 -14.291184 91.551384 -37.38023 59.987495 11.683642 41.234158 -12.985924 -164.81921
4615000000 -14.247721 84.785118 -37.40247 52.857903 11.673313 34.139236 -12.872062 -171.29979
4616000000 -14.205737 78.082092 -37.415348 45.76086 11.663363 27.091101 -12.7903 -177.86464
4617000000 -14.159456 71.456589 -37.456795 38.722893 11.647447 20.024561 -12.700734 175.72229
4618000000 -14.12589 64.835678 -37.45747 31.677055 11.636822 12.950573 -12.631291 169.31409
4619000000 -14.081568 58.073589 -37.456135 24.617546 11.626297 5.9175415 -12.580775 162.99493
4620000000 -14.062031 51.540657 -37.488701 17.507347 11.619682 -1.142514 -12.537307 156.47963
4621000000 -14.014325 44.916119 -37.494392 10.642851 11.609828 -8.1559544 -12.504776 150.10205
4622000000 -13.987314 38.317722 -37.483723 3.531095 11.604602 -15.189905 -12.499102 143.62617
4623000000 -13.95678 31.763792 -37.519032 -3.4447417 11.598346 -22.237854 -12.492649 137.13034
4624000000 -13.919065 25.163157 -37.530602 -10.5332 11.59674 -29.318607 -12.491675 130.6931
4625000000 -13.915538 18.68297 -37.518456 -17.489429 11.586439 -36.34314 -12.50946 124.11906
4626000000 -13.88078 12.161372 -37.536926 -24.466927 11.58462 -43.384022 -12.530663 117.62135
4627000000 -13.874177 5.7577085 -37.538349 -31.522825 11.582172 -50.443222 -12.565969 111.00901
4628000000 -13.870192 -0.70189619 -37.544369 -38.494442 11.57708 -57.456554 -12.605626 104.41431
4629000000 -13.858975 -7.2389922 -37.544476 -45.629387 11.577787 -64.500923 -12.664847 97.700165
4630000000 -13.866145 -13.697818 -37.5434 -52.623295 11.582081 -71.528908 -12.72317 90.907829
4631000000 -13.863681 -20.097225 -37.543648 -59.631577 11.58044 -78.637291 -12.794296 84.115707
4632000000 -13.851631 -26.495304 -37.521477 -66.61068 11.584198 -85.618248 -12.865027 77.25312
4633000000 -13.870523 -32.973145 -37.551502 -73.706993 11.590312 -92.663208 -12.950125 70.367325
4634000000 -13.882936 -39.391792 -37.558926 -80.734688 11.59429 -99.739769 -13.036648 63.364056
4635000000 -13.911643 -45.742813 -37.541016 -87.731018 11.600855 -106.81949 -13.144029 56.29282
4636000000 -13.918249 -52.25465 -37.537502 -94.820114 11.608332 -113.87282 -13.229462 49.186916
4637000000 -13.934922 -58.657879 -37.547665 -101.79399 11.609209 -120.94916 -13.33024 41.962833
4638000000 -13.955944 -65.106171 -37.534832 -109.06024 11.613458 -128.01625 -13.443942 34.615776
4639000000 -13.984937 -71.550377 -37.529541 -115.98097 11.626083 -135.12567 -13.553846 27.226469
4640000000 -14.012203 -77.931534 -37.536648 -123.17683 11.632229 -142.21086 -13.670693 19.813231
4641000000 -14.041414 -84.363441 -37.526482 -130.0936 11.640173 -149.31639 -13.778099 12.253355
4642000000 -14.067887 -90.801605 -37.514229 -137.31129 11.647044 -156.4184 -13.903737 4.5704217
4643000000 -14.100541 -97.235962 -37.507011 -144.35628 11.656617 -163.51366 -14.01166 -3.2134809
4644000000 -14.125591 -103.77055 -37.490105 -151.41399 11.663416 -170.66592 -14.131512 -10.939604
4645000000 -14.158525 -110.176 -37.498074 -158.53889 11.670251 -177.82309 -14.22914 -18.979282
4646000000 -14.178534 -116.54362 -37.483635 -165.7038 11.673955 175.09969 -14.330051 -26.897219
4647000000 -14.205318 -123.19598 -37.510109 -172.8157 11.680567 167.92986 -14.434338 -35.015514
4648000000 -14.239962 -129.7224 -37.492397 -179.9539 11.687405 160.79739 -14.508086 -43.204056
4649000000 -14.252297 -136.22205 -37.481297 172.9505 11.690545 153.65735 -14.606543 -51.419941
4650000000 -14.266716 -142.68974 -37.476471 165.93112 11.698647 146.49257 -14.692715 -59.608032
4651000000 -14.309757 -149.24176 -37.473141 158.69592 11.706188 139.31905 -14.742778 -68.039398
4652000000 -14.307574 -155.91628 -37.469398 151.48489 11.709574 132.16136 -14.81179 -76.460945
4653000000 -14.317411 -162.44112 -37.471745 144.30661 11.707472 124.9723 -14.86822 -84.958687
4654000000 -14.324097 -168.95914 -37.466869 137.1739 11.714579 117.8205 -14.905668 -93.459221
4655000000 -14.340122 -175.61308 -37.462505 130.04039 11.714311 110.60439 -14.939786 -102.04226
4656000000 -14.34165 177.83115 -37.469513 122.89403 11.713046 103.44099 -14.943636 -110.48544
4657000000 -14.353431 171.19843 -37.478687 115.689 11.714192 96.270439 -14.938957 -119.08669
4658000000 -14.339739 164.55247 -37.489811 108.5088 11.710309 89.065109 -14.938176 -127.75217
4659000000 -14.327518 157.90111 -37.504734 101.33907 11.710187 81.897675 -14.902812 -136.13612
4660000000 -14.32326 151.30479 -37.495369 94.153275 11.70342 74.700684 -14.873612 -144.77408
4661000000 -14.297965 144.64355 -37.486813 86.932808 11.699679 67.502373 -14.813285 -153.33142
4662000000 -14.278581 138.00507 -37.507355 79.78653 11.695234 60.323185 -14.78164 -161.82542
4663000000 -14.260134 131.38661 -37.530392 72.543556 11.686674 53.098972 -14.693621 -170.25331
4664000000 -14.238894 124.80868 -37.515652 65.444595 11.67983 45.950714 -14.629122 -178.78462
4665000000 -14.224262 118.01852 -37.549278 58.30537 11.667825 38.744251 -14.54684 172.90323
4666000000 -14.18401 111.48319 -37.553909 51.097099 11.66509 31.580162 -14.455877 164.58447
4667000000 -14.155698 104.68834 -37.565727 43.927128 11.653499 24.376703 -14.342787 156.2126
4668000000 -14.114018 98.04232 -37.598167 36.69381 11.637081 17.16963 -14.232833 147.97456
4669000000 -14.079218 91.30455 -37.604988 29.621168 11.626772 10.011996 -14.104477 139.76711
4670000000 -14.041665 84.793152 -37.611382 22.417465 11.609143 2.8532205 -13.989781 131.68954
4671000000 -14.000649 78.08284 -37.631798 15.205313 11.596377 -4.3097305 -13.879682 123.58737
4672000000 -13.970876 71.371117 -37.660995 7.9983993 11.573729 -11.479619 -13.73183 115.65881
4673000000 -13.928679 64.811691 -37.671974 0.90310961 11.562865 -18.671961 -13.586964 107.78834
4674000000 -13.871469 58.158447 -37.701302 -6.2126389 11.542931 -25.795151 -13.450883 99.925629
4675000000 -13.831701 51.467724 -37.719963 -13.256537 11.527354 -32.910275 -13.311384 92.159073
4676000000 -13.781524 44.811295 -37.733505 -20.336401 11.506568 -40.059326 -13.173909 84.405495
4677000000 -13.736421 38.275883 -37.761009 -27.348282 11.491406 -47.182598 -13.033894 76.90432
4678000000 -13.692033 31.621771 -37.776661 -34.621468 11.473106 -54.306911 -12.89018 69.355385
4679000000 -13.633104 25.027821 -37.783062 -41.690079 11.454393 -61.426296 -12.733191 61.894661
4680000000 -13.622488 18.389463 -37.821079 -48.778606 11.433172 -68.498268 -12.593186 54.50275
4681000000 -13.566004 11.818789 -37.851429 -55.837769 11.414333 -75.547897 -12.447222 47.241039
4682000000 -13.525062 5.3321724 -37.869789 -62.88842 11.389305 -82.667404 -12.315007 39.982311
4683000000 -13.488068 -1.1713104 -37.866055 -69.999413 11.372407 -89.706848 -12.182585 32.948517
4684000000 -13.451606 -7.6982455 -37.915039 -77.018623 11.35835 -96.780136 -12.036699 25.873829
4685000000 -13.419403 -14.289422 -37.939747 -83.825676 11.339127 -103.83581 -11.90802 18.884415
4686000000 -13.396295 -20.68943 -37.952896 -91.055664 11.319918 -110.8559 -11.789369 11.994442
4687000000 -13.365752 -27.263187 -37.977795 -97.889015 11.304603 -117.89312 -11.667761 5.0259123
4688000000 -13.356139 -33.693913 -37.981979 -104.92657 11.28721 -124.93787 -11.554284 -1.7051395
4689000000 -13.331532 -40.214756 -38.010967 -112.0514 11.272902 -131.9646 -11.461461 -8.5211458
4690000000 -13.328159 -46.73003 -38.006062 -118.92011 11.260414 -138.98561 -11.347787 -15.17221
4691000000 -13.306422 -53.20435 -38.046631 -125.91044 11.244065 -145.98154 -11.272239 -21.669149
4692000000 -13.323972 -59.688725 -38.047249 -132.96806 11.237336 -152.96561 -11.193915 -28.285595
4693000000 -13.318788 -66.11161 -38.074471 -139.97928 11.221531 -159.98415 -11.127555 -34.850571
4694000000 -13.309014 -72.644325 -38.076916 -146.91991 11.216263 -166.96373 -11.060048 -41.248199
4695000000 -13.318274 -79.14537 -38.067986 -153.91104 11.209062 -173.96486 -11.018614 -47.704391
4696000000 -13.3308 -85.538597 -38.102455 -160.83649 11.207902 179.0739 -10.975348 -54.140354
4697000000 -13.354036 -92.140869 -38.104752 -167.80589 11.197122 172.06709 -10.949631 -60.484966
4698000000 -13.377033 -98.535988 -38.106892 -174.7963 11.198761 165.07169 -10.935681 -66.882393
4699000000 -13.376728 -105.17297 -38.085392 178.24277 11.204123 158.12146 -10.92411 -73.18071
4700000000 -13.412299 -111.5619 -38.103203 171.3018 11.202804 151.11876 -10.932022 -79.527054
4701000000 -13.436785 -118.12675 -38.088577 164.21236 11.208611 144.14967 -10.956081 -85.896523
4702000000 -13.475206 -124.56231 -38.097229 157.28416 11.210452 137.12708 -10.989488 -92.290276
4703000000 -13.508869 -131.11818 -38.067715 150.21916 11.216449 130.10817 -11.044511 -98.647682
4704000000 -13.521878 -137.69502 -38.093945 143.38229 11.226481 123.13692 -11.107229 -105.0202
4705000000 -13.576884 -144.18947 -38.073841 136.21388 11.236382 116.1244 -11.168887 -111.45548
4706000000 -13.583607 -150.81024 -38.049736 129.20398 11.247326 109.07522 -11.270492 -117.95365
4707000000 -13.624003 -157.3502 -38.034863 122.1869 11.262193 102.05952 -11.370378 -124.51639
4708000000 -13.661959 -163.96222 -38.01952 115.22036 11.279041 95.021904 -11.49005 -131.12027
4709000000 -13.699061 -170.49768 -38.033592 108.08883 11.291122 87.929459 -11.612509 -137.85828
4710000000 -13.726833 -176.99997 -38.027809 101.09718 11.305102 80.884674 -11.76389 -144.61676
4711000000 -13.757613 176.39523 -37.996319 94.149101 11.32515 73.800446 -11.914488 -151.42123
4712000000 -13.792075 169.69261 -37.975491 87.040642 11.333457 66.713776 -12.090421 -158.44336
4713000000 -13.827105 163.23749 -37.972847 79.889381 11.353399 59.590191 -12.277671 -165.58487
4714000000 -13.83496 156.69174 -37.94532 72.757553 11.378231 52.469688 -12.48058 -172.81914
4715000000 -13.855045 150.02969 -37.941319 65.645592 11.390316 45.300968 -12.690723 179.776
4716000000 -13.887941 143.51926 -37.938396 58.508739 11.405808 38.169956 -12.907314 172.15007
4717000000 -13.901843 136.92532 -37.919495 51.354687 11.425164 31.015913 -13.139337 164.3492
4718000000 -13.923812 130.28052 -37.899757 44.279236 11.438349 23.798515 -13.362157 156.41801
4719000000 -13.93111 123.81353 -37.892326 37.030655 11.454483 16.661848 -13.611749 148.18173
4720000000 -13.942605 117.18374 -37.884979 29.861462 11.462506 9.4168863 -13.827596 139.79596
4721000000 -13.94139 110.63119 -37.867065 22.584782 11.47415 2.2125406 -14.041393 131.06943
4722000000 -13.935734 104.11665 -37.869362 15.478365 11.485975 -4.9697332 -14.281711 122.22414
4723000000 -13.942604 97.519699 -37.862507 8.2720947 11.485985 -12.217168 -14.4688 113.02341
4724000000 -13.937646 90.986778 -37.840672 1.0614692 11.500148 -19.467463 -14.634827 103.66084
4725000000 -13.928249 84.456551 -37.849804 -6.2982287 11.502031 -26.731133 -14.771257 94.021332
4726000000 -13.910213 77.870743 -37.861088 -13.491435 11.501153 -33.980267 -14.865397 84.302574
4727000000 -13.897606 71.249802 -37.860168 -20.648901 11.500666 -41.196381 -14.932906 74.358437
4728000000 -13.881743 64.676956 -37.876984 -28.083179 11.499792 -48.506901 -14.957893 64.449951
4729000000 -13.861061 58.192619 -37.873043 -35.16708 11.494221 -55.735168 -14.905421 54.543915
4730000000 -13.834146 51.54583 -37.900154 -42.360992 11.486255 -62.992638 -14.814271 44.589027
4731000000 -13.805255 45.019737 -37.903065 -49.752254 11.473614 -70.258934 -14.706273 34.775494
4732000000 -13.775219 38.465996 -37.920422 -56.959808 11.453562 -77.51255 -14.550271 25.110651
4733000000 -13.737617 31.838148 -37.930328 -64.243919 11.444151 -84.777664 -14.338378 15.617605
4734000000 -13.690063 25.280901 -37.960667 -71.409065 11.426744 -91.959396 -14.120887 6.3873219
4735000000 -13.663439 18.689266 -37.975079 -78.530418 11.408666 -99.21875 -13.855353 -2.5688312
4736000000 -13.619651 12.077567 -37.999901 -85.643707 11.390694 -106.42941 -13.597672 -11.345395
4737000000 -13.581236 5.4551058 -38.030529 -92.976204 11.361216 -113.66199 -13.332622 -19.854885
4738000000 -13.560239 -1.0384386 -38.039101 -100.21957 11.33839 -120.84406 -13.058187 -28.128895
4739000000 -13.496977 -7.7506385 -38.081577 -107.23024 11.313998 -128.03972 -12.775118 -36.084534
4740000000 -13.464604 -14.277325 -38.119423 -114.32101 11.287739 -135.20927 -12.509704 -43.959965
4741000000 -13.437843 -20.909855 -38.13942 -121.48376 11.257561 -142.37819 -12.245203 -51.482544
4742000000 -13.402394 -27.424128 -38.170513 -128.6433 11.228786 -149.49564 -11.996391 -58.910347
4743000000 -13.378161 -34.07098 -38.189983 -135.82411 11.197003 -156.57259 -11.759712 -66.10984
4744000000 -13.345519 -40.677105 -38.228931 -142.65096 11.168132 -163.70422 -11.524084 -73.260689
4745000000 -13.305532 -47.354156 -38.260307 -149.95944 11.140445 -170.78886 -11.314733 -80.116463
4746000000 -13.282963 -53.933369 -38.293793 -156.9843 11.11202 -177.85092 -11.103729 -86.91951
4747000000 -13.26052 -60.494514 -38.319092 -163.99927 11.082931 175.08159 -10.933859 -93.56208
4748000000 -13.239099 -67.070534 -38.346188 -171.02832 11.056131 168.05792 -10.757344 -100.1283
4749000000 -13.218939 -73.689117 -38.375626 -178.02971 11.031505 161.02843 -10.609453 -106.66153
4750000000 -13.184253 -80.190544 -38.409302 174.94942 11.003044 154.02034 -10.471775 -113.04352
4751000000 -13.176076 -86.858849 -38.420078 167.99004 10.985778 147.0246 -10.35052 -119.3258
4752000000 -13.166075 -93.426132 -38.451862 160.88686 10.960737 140.03802 -10.242527 -125.58322
4753000000 -13.161691 -100.08463 -38.447342 154.03368 10.945817 133.0511 -10.15272 -131.84665
4754000000 -13.146852 -106.61625 -38.484592 147.03735 10.92627 126.09123 -10.075942 -138.00247
4755000000 -13.130652 -113.19954 -38.502342 140.10216 10.913602 119.15004 -10.006956 -144.21297
4756000000 -13.138288 -119.79174 -38.507954 133.13329 10.896638 112.15156 -9.9731779 -150.26465
4757000000 -13.144527 -126.31547 -38.531967 126.11739 10.884586 105.24599 -9.9365644 -156.43031
4758000000 -13.138048 -132.88037 -38.539936 119.35093 10.882033 98.322105 -9.9144278 -162.57898
4759000000 -13.137683 -139.4304 -38.534561 112.33495 10.87606 91.354347 -9.9116678 -168.67094
4760000000 -13.163522 -146.0446 -38.576492 105.35091 10.870846 84.390976 -9.9207344 -174.8335
4761000000 -13.167371 -152.57874 -38.543434 98.557892 10.867561 77.482498 -9.9625587 179.03642
4762000000 -13.186891 -159.13449 -38.543945 91.641159 10.872534 70.542641 -10.000654 172.90219
4763000000 -13.187289 -165.71872 -38.562923 84.539291 10.880347 63.569683 -10.034459 166.6096
4764000000 -13.216873 -172.28633 -38.567299 77.619194 10.880719 56.558922 -10.117455 160.27927
4765000000 -13.24835 -178.91092 -38.558247 70.77446 10.890624 49.628578 -10.190022 153.9649
4766000000 -13.260773 174.63071 -38.548332 63.707306 10.900075 42.654602 -10.281209 147.58856
4767000000 -13.280228 168.05006 -38.522316 56.878773 10.905154 35.666992 -10.379321 141.03197
4768000000 -13.283488 161.48033 -38.518757 49.80603 10.927438 28.651503 -10.49203 134.52036
4769000000 -13.302855 154.92468 -38.524338 42.686626 10.94296 21.627083 -10.61931 127.8643
4770000000 -13.332128 148.46248 -38.502537 35.786442 10.95637 14.628511 -10.767934 121.12913
4771000000 -13.355851 141.79013 -38.483097 28.884876 10.967266 7.5736008 -10.910465 114.20004
4772000000 -13.374792 135.32762 -38.477264 21.76696 10.990064 0.52959394 -11.063902 107.26018
4773000000 -13.387882 128.78758 -38.42585 14.714502 11.008552 -6.5600901 -11.227552 100.18465
4774000000 -13.412357 122.19318 -38.423012 7.6763821 11.021422 -13.634865 -11.390382 92.906509
4775000000 -13.432774 115.683 -38.444798 0.55659771 11.042582 -20.7178 -11.577052 85.497253
4776000000 -13.446824 109.15677 -38.412781 -6.4980183 11.063633 -27.832041 -11.755024 77.942238
4777000000 -13.464906 102.65657 -38.38036 -13.788075 11.076921 -35.00449 -11.935431 70.271179
4778000000 -13.485805 96.137886 -38.365627 -20.845072 11.09948 -42.119316 -12.126987 62.413612
4779000000 -13.493773 89.639313 -38.367455 -27.96583 11.120731 -49.277344 -12.303138 54.304466
4780000000 -13.506366 83.060432 -38.348415 -35.191273 11.131346 -56.463726 -12.470243 46.164467
4781000000 -13.503538 76.565155 -38.323315 -42.240772 11.147938 -63.656654 -12.653475 37.770508
4782000000 -13.518785 70.046478 -38.324169 -49.49577 11.162477 -70.82888 -12.804914 29.319241
4783000000 -13.511974 63.463829 -38.31348 -56.679764 11.17295 -78.049751 -12.94204 20.544048
4784000000 -13.514831 57.045021 -38.321224 -63.820782 11.180493 -85.276581 -13.074245 11.729828
4785000000 -13.520849 50.636719 -38.301792 -71.110077 11.189519 -92.496666 -13.168334 2.7539299
4786000000 -13.512946 44.165695 -38.312756 -78.277779 11.190734 -99.728935 -13.237752 -6.4339552
4787000000 -13.506269 37.600559 -38.303528 -85.418083 11.192004 -106.9969 -13.305045 -15.565581
4788000000 -13.492382 31.0716 -38.298866 -92.719826 11.199402 -114.18742 -13.337082 -24.715261
4789000000 -13.483143 24.584246 -38.299603 -99.875908 11.19859 -121.50075 -13.334596 -33.928905
4790000000 -13.46011 18.067087 -38.295513 -107.1871 11.200631 -128.71843 -13.300227 -43.187336
4791000000 -13.462459 11.644194 -38.298843 -114.32499 11.191024 -135.97003 -13.254601 -52.386066
4792000000 -13.429791 5.0583968 -38.295517 -121.6456 11.183129 -143.21886 -13.163533 -61.370255
4793000000 -13.432421 -1.3374757 -38.336098 -128.89661 11.178342 -150.47041 -13.078238 -70.393982
4794000000 -13.412471 -7.8639698 -38.344131 -135.93195 11.167202 -157.71315 -12.938185 -79.248405
4795000000 -13.400302 -14.343749 -38.349987 -143.32797 11.154139 -164.94104 -12.819304 -88.047981
4796000000 -13.383816 -20.890779 -38.367481 -150.47231 11.135904 -172.15683 -12.66931 -96.64106
4797000000 -13.371914 -27.369293 -38.401325 -157.61952 11.118725 -179.38943 -12.513327 -105.17598
4798000000 -13.350873 -33.792408 -38.420734 -164.94441 11.099482 173.3764 -12.357644 -113.48859
4799000000 -13.345806 -40.335033 -38.426567 -172.12143 11.080999 166.18756 -12.18581 -121.61195
4800000000 -13.318504 -46.85886 -38.46106 -179.27208 11.063927 159.01306 -12.023466 -129.70059
4801000000 -13.314944 -53.402439 -38.494564 173.56543 11.038847 151.83766 -11.86052 -137.59782
4802000000 -13.311535 -59.912296 -38.482483 166.28609 11.015674 144.68385 -11.695117 -145.36154
4803000000 -13.281934 -66.554565 -38.527031 159.26151 10.992329 137.51036 -11.549014 -153.02525
4804000000 -13.27719 -73.07663 -38.561966 152.22398 10.970256 130.3651 -11.387431 -160.61386
4805000000 -13.262969 -79.667206 -38.591286 144.95993 10.945545 123.24238 -11.252506 -167.98158
4806000000 -13.278849 -86.262505 -38.612747 137.9472 10.917337 116.14014 -11.124392 -175.38229
4807000000 -13.267924 -92.910202 -38.6567 130.64099 10.894676 109.01775 -10.998187 177.28114
4808000000 -13.265957 -99.444214 -38.671028 123.67274 10.870202 101.91598 -10.86762 170.0779
4809000000 -13.271306 -106.13776 -38.693043 116.72536 10.846649 94.838768 -10.762345 162.94124
4810000000 -13.264193 -112.80712 -38.715767 109.55145 10.824647 87.767647 -10.658953 155.84351
4811000000 -13.260539 -119.37283 -38.729294 102.55931 10.801252 80.71627 -10.568177 148.79984
4812000000 -13.258218 -126.02217 -38.775013 95.491859 10.777216 73.654221 -10.483032 141.81499
4813000000 -13.268152 -132.73772 -38.797421 88.460068 10.758007 66.598328 -10.400175 134.87099
4814000000 -13.264812 -139.46867 -38.792862 81.32402 10.740379 59.57037 -10.331767 127.97118
4815000000 -13.26107 -146.18341 -38.842258 74.386497 10.717879 52.534786 -10.275367 121.0876
4816000000 -13.276765 -152.79073 -38.868286 67.405045 10.698031 45.540279 -10.216057 114.19775
4817000000 -13.276425 -159.59235 -38.894543 60.322716 10.686376 38.466118 -10.155717 107.36828
4818000000 -13.270081 -166.2812 -38.900429 53.295116 10.670667 31.527344 -10.12431 100.51143
4819000000 -13.272426 -172.95226 -38.896759 46.51075 10.652172 24.477083 -10.078449 93.666389
4820000000 -13.282989 -179.69284 -38.937359 39.533974 10.636474 17.480139 -10.056268 86.78846
4821000000 -13.277826 173.58109 -38.954102 32.455486 10.632592 10.482132 -10.023028 79.979164
4822000000 -13.279927 166.87456 -38.952526 25.515169 10.623787 3.4555542 -10.006868 73.11644
4823000000 -13.266882 160.16299 -38.972767 18.558159 10.610762 -3.5144243 -9.9915466 66.313278
4824000000 -13.271058 153.41771 -38.984314 11.578714 10.599841 -10.498687 -9.9798555 59.473019
4825000000 -13.274902 146.6987 -38.989513 4.4593215 10.599921 -17.52326 -9.963726 52.580563
4826000000 -13.278261 140.08304 -38.979904 -2.3702629 10.596423 -24.492592 -9.9639988 45.770954
4827000000 -13.274818 133.33282 -39.023518 -9.371191 10.587739 -31.497412 -9.964819 38.880497
4828000000 -13.279392 126.57872 -39.003254 -16.282024 10.588565 -38.52718 -9.969017 32.045074
4829000000 -13.277918 119.92617 -39.011795 -23.28974 10.583313 -45.520096 -9.9748354 25.130352
4830000000 -13.263535 113.20676 -39.00914 -30.280552 10.585943 -52.531013 -9.9835711 18.251051
4831000000 -13.271258 106.57707 -39.017437 -37.383266 10.590972 -59.53521 -9.9882689 11.303631
4832000000 -13.263192 99.93029 -39.027046 -44.288067 10.588861 -66.549416 -10.002912 4.3761768
4833000000 -13.261932 93.219704 -39.008957 -51.415928 10.593512 -73.542755 -10.021088 -2.5842328
4834000000 -13.255989 86.542015 -39.019222 -58.373913 10.593549 -80.57711 -10.058897 -9.5871744
4835000000 -13.265967 79.924133 -38.982101 -65.376823 10.60162 -87.602005 -10.063139 -16.531172
4836000000 -13.259344 73.291656 -39.009594 -72.422348 10.608822 -94.636345 -10.097992 -23.498512
4837000000 -13.264448 66.682144 -39.000729 -79.412788 10.612621 -101.67667 -10.125216 -30.527231
4838000000 -13.256289 60.052643 -38.985413 -86.453102 10.622864 -108.74047 -10.159133 -37.64587
4839000000 -13.24525 53.443489 -38.972389 -93.402817 10.630784 -115.77462 -10.211157 -44.644581
4840000000 -13.24925 46.875668 -38.975613 -100.35886 10.640021 -122.83758 -10.250695 -51.776451
4841000000 -13.239812 40.315754 -38.969154 -107.5548 10.644278 -129.88815 -10.29212 -58.921303
4842000000 -13.240163 33.744022 -38.945549 -114.53006 10.65514 -136.9814 -10.343749 -66.098785
4843000000 -13.234113 27.11919 -38.941387 -121.57839 10.665737 -144.0851 -10.403334 -73.290382
4844000000 -13.229484 20.712194 -38.950344 -128.59192 10.675195 -151.13676 -10.458547 -80.588013
4845000000 -13.220885 14.110912 -38.931301 -135.75571 10.68625 -158.25261 -10.525035 -87.829544
4846000000 -13.228207 7.6516213 -38.927322 -142.67496 10.693647 -165.34128 -10.589777 -95.202881
4847000000 -13.222972 1.1569453 -38.938721 -149.88126 10.705339 -172.47601 -10.668332 -102.6348
4848000000 -13.227465 -5.3527131 -38.906811 -156.96059 10.716524 -179.59882 -10.741901 -110.12205
4849000000 -13.20792 -11.782213 -38.920803 -164.11519 10.722884 173.28337 -10.827628 -117.6153
4850000000 -13.21023 -18.259436 -38.88546 -171.19608 10.731678 166.1378 -10.905763 -125.18195
4851000000 -13.20579 -24.708288 -38.8741 -178.20879 10.736863 159.00233 -10.998202 -132.86362
4852000000 -13.199084 -31.148716 -38.878174 174.46262 10.750316 151.85197 -11.08066 -140.61351
4853000000 -13.193443 -37.538216 -38.853924 167.30293 10.755453 144.69347 -11.175696 -148.44266
4854000000 -13.196581 -43.922375 -38.868969 160.27937 10.762267 137.50682 -11.279434 -156.3586
4855000000 -13.182262 -50.381405 -38.863888 152.96552 10.768131 130.3174 -11.362548 -164.36749
4856000000 -13.19571 -56.794754 -38.856819 146.0096 10.775393 123.14229 -11.442518 -172.42973
4857000000 -13.184452 -63.199242 -38.850735 138.61978 10.773679 115.96884 -11.532268 179.36488
4858000000 -13.194337 -69.615959 -38.867481 131.52954 10.777634 108.75896 -11.610428 171.02782
4859000000 -13.194651 -76.055893 -38.854527 124.3498 10.774852 101.54936 -11.677838 162.66154
4860000000 -13.18643 -82.473175 -38.871845 117.14095 10.774417 94.323769 -11.74172 154.21864
4861000000 -13.185033 -88.903183 -38.873215 109.85583 10.77486 87.14315 -11.800036 145.68486
4862000000 -13.184351 -95.331314 -38.867222 102.62344 10.767034 79.937164 -11.848836 137.06024
4863000000 -13.190886 -101.82439 -38.889935 95.477203 10.764422 72.729485 -11.881494 128.44109
4864000000 -13.183473 -108.23185 -38.904835 88.302368 10.757432 65.507607 -11.89358 119.69512
4865000000 -13.188791 -114.6602 -38.896774 81.133003 10.746584 58.244274 -11.882492 110.92074
4866000000 -13.177538 -121.20383 -38.932209 73.901848 10.738241 51.076733 -11.86866 102.18814
4867000000 -13.172696 -127.6608 -38.922184 66.637199 10.726959 43.86834 -11.826283 93.470909
4868000000 -13.174454 -134.21613 -38.971512 59.511822 10.712296 36.652298 -11.780979 84.742851
4869000000 -13.173884 -140.76114 -38.983227 52.362164 10.700747 29.438805 -11.706906 76.098473
4870000000 -13.169672 -147.21956 -38.979816 44.94442 10.680758 22.225534 -11.618738 67.526863
4871000000 -13.166959 -153.91805 -39.001995 38.053532 10.659092 15.04893 -11.515764 58.974701
4872000000 -13.152937 -160.38095 -39.029678 30.714224 10.645359 7.868187 -11.403681 50.590397
4873000000 -13.150604 -167.02638 -39.063446 23.717047 10.61846 0.69523734 -11.282288 42.241428
4874000000 -13.138354 -173.64883 -39.087746 16.54236 10.596757 -6.4816256 -11.145153 34.078217
4875000000 -13.132615 179.84073 -39.099617 9.5269279 10.576695 -13.578055 -10.998813 26.011255
4876000000 -13.133225 173.17989 -39.127151 2.2615263 10.547731 -20.76519 -10.84469 18.047903
4877000000 -13.109257 166.5079 -39.154465 -4.8173304 10.525845 -27.893341 -10.706164 10.209224
4878000000 -13.104648 159.83405 -39.199638 -11.877911 10.49399 -35.019199 -10.545107 2.5109446
4879000000 -13.095896 153.09563 -39.230667 -19.017265 10.468444 -42.103313 -10.396475 -5.0687051
4880000000 -13.083614 146.43863 -39.233932 -26.295652 10.440687 -49.217793 -10.245621 -12.489199
4881000000 -13.077344 139.7896 -39.259617 -33.167019 10.418872 -56.251968 -10.095209 -19.798149
4882000000 -13.067342 133.11928 -39.311718 -40.191589 10.38628 -63.304577 -9.9504442 -26.913504
4883000000 -13.046575 126.39803 -39.329185 -47.194756 10.363447 -70.367607 -9.810813 -34.073265
4884000000 -13.048057 119.65874 -39.357212 -54.222157 10.339233 -77.43351 -9.6759472 -41.107986
4885000000 -13.037889 113.04443 -39.375095 -61.279999 10.314003 -84.434196 -9.558382 -47.898102
4886000000 -13.013579 106.36807 -39.412708 -68.297836 10.28787 -91.464745 -9.4472303 -54.718491
4887000000 -13.01425 99.754082 -39.413376 -75.333862 10.267776 -98.451691 -9.3338432 -61.497276
4888000000 -12.99845 93.029297 -39.445984 -82.272606 10.244527 -105.40714 -9.2375212 -68.10936
4889000000 -12.989979 86.391113 -39.483025 -89.155678 10.230675 -112.41899 -9.153616 -74.618683
4890000000 -12.980222 79.676552 -39.48204 -95.932266 10.212418 -119.36028 -9.0799646 -81.185471
4891000000 -12.974895 72.996117 -39.497498 -103.10706 10.19582 -126.32806 -9.0059862 -87.65638
4892000000 -12.973624 66.395325 -39.528973 -109.91856 10.182009 -133.31676 -8.9503031 -94.064865
4893000000 -12.965268 59.737934 -39.522289 -116.95143 10.17226 -140.23141 -8.9035482 -100.4569
4894000000 -12.956562 52.992775 -39.531765 -123.92722 10.1578 -147.18086 -8.8639746 -106.83537
4895000000 -12.950589 46.459629 -39.567978 -130.82913 10.15311 -154.11108 -8.841548 -113.13679
4896000000 -12.944955 39.785984 -39.576473 -137.62605 10.147304 -161.0379 -8.8287992 -119.44489
4897000000 -12.949444 33.172474 -39.575047 -144.67908 10.14439 -167.96843 -8.8149433 -125.74973
4898000000 -12.951886 26.641438 -39.544445 -151.48399 10.143055 -174.89557 -8.8217678 -132.06213
4899000000 -12.951469 20.130405 -39.551434 -158.40385 10.146444 178.14326 -8.8401222 -138.34929
4900000000 -12.944034 13.605124 -39.548164 -165.321 10.150675 171.17616 -8.8727579 -144.77124
4901000000 -12.947485 6.976799 -39.554935 -172.22566 10.158286 164.22447 -8.917305 -151.15816
4902000000 -12.943192 0.46926779 -39.544987 -179.25352 10.160796 157.28786 -8.974946 -157.49196
4903000000 -12.954731 -6.088778 -39.544376 173.91684 10.17541 150.32912 -9.0355873 -163.90749
4904000000 -12.956388 -12.447775 -39.531948 166.81586 10.186734 143.39041 -9.1046591 -170.36249
4905000000 -12.965652 -18.845667 -39.52354 159.87218 10.20334 136.39389 -9.1924553 -176.93735
4906000000 -12.981688 -25.33573 -39.476627 152.97134 10.212123 129.39951 -9.2977591 176.42906
4907000000 -12.979713 -31.751131 -39.491535 145.95863 10.235561 122.35699 -9.4194584 169.75092
4908000000 -12.997361 -38.111061 -39.474442 138.94678 10.259501 115.34908 -9.5244083 162.91786
4909000000 -13.013802 -44.575211 -39.472591 131.83229 10.272236 108.28671 -9.6641226 156.04562
4910000000 -13.024736 -50.879257 -39.437744 124.70554 10.298755 101.28229 -9.8092794 149.10126
4911000000 -13.042028 -57.28685 -39.438766 117.69983 10.317749 94.172081 -9.9651213 141.88718
4912000000 -13.07271 -63.674862 -39.385056 110.58199 10.347386 87.088898 -10.120878 134.7218
4913000000 -13.084455 -69.936249 -39.365513 103.56592 10.360973 79.965836 -10.305211 127.15787
4914000000 -13.096292 -76.299927 -39.335522 96.408844 10.382656 72.827324 -10.483667 119.6599
4915000000 -13.131361 -82.679886 -39.340725 89.191689 10.404261 65.710503 -10.672118 111.93901
4916000000 -13.146177 -89.11795 -39.327694 82.231117 10.427204 58.558006 -10.864058 103.98433
4917000000 -13.174757 -95.501015 -39.310741 74.995331 10.449154 51.366489 -11.045613 95.84922
4918000000 -13.19034 -101.79251 -39.292336 67.719688 10.468957 44.156513 -11.241411 87.474731
4919000000 -13.223954 -108.18481 -39.272644 60.668556 10.481613 36.922222 -11.422671 78.994469
4920000000 -13.242467 -114.58321 -39.252628 53.420837 10.499563 29.732019 -11.589658 70.311913
4921000000 -13.273059 -120.97213 -39.239727 46.133041 10.514253 22.476336 -11.738375 61.338776
4922000000 -13.266177 -127.46703 -39.228481 38.938919 10.525072 15.229205 -11.876822 52.313015
4923000000 -13.32178 -133.93213 -39.250313 31.581644 10.531242 7.9179039 -11.993625 42.993176
4924000000 -13.322523 -140.35063 -39.236275 24.40831 10.535832 0.67389208 -12.083397 33.626301
4925000000 -13.332589 -146.92487 -39.225563 17.134432 10.541433 -6.641664 -12.135754 24.077421
4926000000 -13.360042 -153.30359 -39.237244 9.896121 10.532359 -13.919848 -12.150622 14.604227
4927000000 -13.35732 -160.02426 -39.232075 2.4951985 10.532443 -21.187376 -12.125278 5.0697999
4928000000 -13.355803 -166.55605 -39.247101 -4.6411676 10.528663 -28.484535 -12.088047 -4.4383097
4929000000 -13.375895 -173.09184 -39.259769 -11.883348 10.519372 -35.789108 -12.016112 -13.931371
4930000000 -13.364918 -179.84772 -39.264282 -19.215796 10.506808 -43.069874 -11.902883 -23.300369
4931000000 -13.364063 173.57076 -39.27705 -26.526489 10.487893 -50.333855 -11.769255 -32.407448
4932000000 -13.36206 166.96841 -39.288773 -33.537544 10.47534 -57.611103 -11.611052 -41.474171
4933000000 -13.348285 160.27068 -39.322788 -41.057007 10.451086 -64.875175 -11.44624 -50.282394
4934000000 -13.335201 153.51265 -39.329998 -48.171509 10.425589 -72.13678 -11.257348 -58.95628
4935000000 -13.325862 146.96805 -39.377262 -55.318634 10.401947 -79.348083 -11.073279 -67.399849
4936000000 -13.308132 140.08272 -39.418552 -62.629139 10.375427 -86.602905 -10.878024 -75.674355
4937000000 -13.305198 133.41734 -39.427891 -69.61261 10.345003 -93.775581 -10.6751 -83.802567
4938000000 -13.282627 126.76667 -39.486408 -76.934525 10.30882 -100.96389 -10.478692 -91.619774
4939000000 -13.258622 120.01988 -39.484917 -84.043945 10.279519 -108.14551 -10.289798 -99.317383
4940000000 -13.232077 113.31454 -39.545113 -91.193832 10.243761 -115.27962 -10.103032 -106.83601
4941000000 -13.222843 106.54734 -39.565742 -98.412781 10.214861 -122.38326 -9.9378386 -114.23892
4942000000 -13.186666 99.803795 -39.591255 -105.32934 10.179864 -129.53543 -9.7705965 -121.48135
4943000000 -13.170984 93.045624 -39.640247 -112.55267 10.140948 -136.63911 -9.6136217 -128.64726
4944000000 -13.145732 86.342621 -39.673878 -119.61092 10.111875 -143.68436 -9.4617052 -135.6138
4945000000 -13.138148 79.644302 -39.713593 -126.66042 10.077183 -150.71161 -9.3280783 -142.55295
4946000000 -13.106265 72.945366 -39.721813 -133.64764 10.048725 -157.81725 -9.2106504 -149.36501
4947000000 -13.09627 66.288124 -39.754612 -140.67192 10.019368 -164.80548 -9.0886116 -156.07379
4948000000 -13.088081 59.54147 -39.801361 -147.66394 9.9860258 -171.82423 -8.9914865 -162.70808
4949000000 -13.070068 52.932198 -39.829865 -154.75282 9.9604082 -178.8154 -8.8968067 -169.35869
4950000000 -13.055093 46.24374 -39.845722 -161.64027 9.9315319 174.17009 -8.823494 -175.91263
4951000000 -13.036109 39.56472 -39.870548 -168.63455 9.9095268 167.24368 -8.7446613 177.63377
4952000000 -13.037503 32.963528 -39.915386 -175.55658 9.8841362 160.26566 -8.6969633 171.09854
4953000000 -13.02025 26.244658 -39.927567 177.49007 9.8680286 153.32225 -8.6470976 164.714
4954000000 -13.008094 19.685381 -39.946579 170.68782 9.8521738 146.37866 -8.6126671 158.31026
4955000000 -13.007152 13.051212 -39.978722 163.66397 9.8309603 139.45535 -8.5932655 151.85088
4956000000 -13.002602 6.4831295 -39.978916 156.86815 9.8175373 132.51709 -8.5777235 145.43413
4957000000 -13.00256 -0.15984757 -39.995094 150.03101 9.8121767 125.56987 -8.5649462 139.03944
4958000000 -13.003448 -6.7066627 -40.011497 143.06042 9.7988005 118.63802 -8.5655718 132.54088
4959000000 -13.000221 -13.317055 -40.016228 135.9258 9.8007107 111.69418 -8.5824509 126.11167
4960000000 -13.006281 -19.925692 -40.050068 129.06395 9.7842445 104.78223 -8.6065025 119.67432
4961000000 -13.008168 -26.358198 -40.013412 122.10155 9.7901106 97.860687 -8.6379938 113.11219
4962000000 -13.006987 -32.960884 -40.026867 115.24499 9.7849207 90.910606 -8.6777601 106.58562
4963000000 -13.011893 -39.467911 -40.035107 108.29532 9.791091 83.95665 -8.7215214 99.968544
4964000000 -13.013966 -45.918068 -40.024345 101.36476 9.8006411 77.019997 -8.7653532 93.348518
4965000000 -13.020966 -52.419727 -40.017437 94.471916 9.8025351 70.063957 -8.8311033 86.628365
4966000000 -13.039791 -58.936516 -39.999138 87.588165 9.8115129 63.076 -8.8973675 79.876785
4967000000 -13.041806 -65.329903 -39.995049 80.587509 9.8199663 56.130901 -8.9761324 73.09948
4968000000 -13.060039 -71.80468 -40.014702 73.612724 9.8341894 49.145634 -9.0576124 66.199089
4969000000 -13.076427 -78.313423 -40.002289 66.665344 9.844902 42.141537 -9.1447392 59.169342
4970000000 -13.086325 -84.673721 -39.978065 59.485657 9.8618422 35.15358 -9.2315216 52.132542
4971000000 -13.094722 -91.124489 -39.960739 52.644432 9.8727789 28.126465 -9.329998 44.982819
4972000000 -13.118134 -97.555969 -39.941238 45.586205 9.8880577 21.089218 -9.4183493 37.778984
4973000000 -13.143333 -103.98407 -39.953289 38.611858 9.9073639 14.058314 -9.5191221 30.469494
4974000000 -13.161026 -110.4155 -39.923328 31.441687 9.9267845 6.9281445 -9.6209974 22.956762
4975000000 -13.177963 -116.8794 -39.915398 24.444664 9.9408598 -0.1389816 -9.7268801 15.483583
4976000000 -13.214656 -123.30187 -39.882481 17.283321 9.9530478 -7.1986156 -9.8294058 7.8687596
4977000000 -13.231584 -129.75635 -39.871704 10.336596 9.9770365 -14.279644 -9.9182587 0.15552706
4978000000 -13.255012 -136.15808 -39.85199 3.1143005 9.9887981 -21.42828 -10.018472 -7.6693778
4979000000 -13.283917 -142.59326 -39.846668 -3.757551 10.009691 -28.556536 -10.110614 -15.577375
4980000000 -13.29937 -149.06674 -39.848068 -11.033041 10.021944 -35.679489 -10.206132 -23.553787
4981000000 -13.312099 -155.43977 -39.787895 -17.975645 10.036132 -42.836834 -10.28021 -31.650248
4982000000 -13.341486 -162.07727 -39.800175 -25.374605 10.045986 -50.045425 -10.362797 -39.834732
4983000000 -13.349451 -168.47714 -39.804596 -32.551655 10.059079 -57.187527 -10.428255 -48.041752
4984000000 -13.36892 -175.00473 -39.761337 -39.693172 10.072062 -64.377464 -10.487724 -56.300484
4985000000 -13.403112 178.47316 -39.776363 -46.821972 10.081875 -71.569649 -10.527008 -64.637222
4986000000 -13.402145 171.92793 -39.764221 -54.202541 10.085653 -78.757889 -10.567024 -73.033325
4987000000 -13.410642 165.39929 -39.773438 -61.238583 10.098434 -86.016037 -10.590283 -81.329285
4988000000 -13.437407 158.88693 -39.760769 -68.407776 10.096898 -93.197197 -10.613127 -89.801025
4989000000 -13.454043 152.19478 -39.754654 -75.492561 10.098556 -100.42999 -10.620417 -98.166359
4990000000 -13.456182 145.56984 -39.785542 -82.770493 10.10206 -107.63409 -10.624215 -106.59041
4991000000 -13.447896 138.98654 -39.768272 -89.970207 10.101585 -114.85886 -10.617497 -115.01346
4992000000 -13.437469 132.3493 -39.778229 -97.080734 10.098633 -122.10366 -10.582811 -123.40872
4993000000 -13.455381 125.74384 -39.788525 -104.43121 10.087958 -129.29596 -10.563729 -131.7039
4994000000 -13.461002 119.10825 -39.805454 -111.69892 10.079948 -136.52486 -10.52622 -139.97993
4995000000 -13.440923 112.40576 -39.808414 -118.84241 10.074136 -143.77254 -10.485205 -148.26773
4996000000 -13.431414 105.77056 -39.806049 -126.02988 10.063552 -150.97781 -10.439163 -156.4832
4997000000 -13.429707 99.04361 -39.834736 -133.20781 10.052724 -158.20557 -10.389056 -164.74123
4998000000 -13.418437 92.40052 -39.851532 -140.49939 10.036525 -165.39499 -10.32886 -172.83894
4999000000 -13.406522 85.741325 -39.836895 -147.55392 10.025176 -172.59235 -10.2691 179.06041
5000000000 -13.381288 79.084473 -39.88578 -154.98843 10.005428 -179.82468 -10.207518 171.02313
