!Keysight Technologies,P5024B,MY61400434,A.20.20.03
!Date: Monday, July 13, 2026 10:29:15
!Correction: S11(C  2-Port  ) 
!S21(C  2-Port  ) 
!S12(C  2-Port  ) 
!S22(C  2-Port  ) 
!S2P File: Measurements: S11, S21, S12, S22:
# Hz S  dB   R 50
2000000000 -37.174667 -55.714348 -0.96944535 96.345833 -0.9636535 96.356155 -52.856071 -124.91283
2001000000 -37.151985 -60.359371 -0.96918452 93.726868 -0.96524054 93.697754 -51.22448 -121.91378
2002000000 -37.438801 -63.170315 -0.97471219 91.042168 -0.9663583 91.043388 -48.688286 -133.27582
2003000000 -37.521107 -67.237823 -0.96732074 88.406769 -0.97052014 88.39595 -47.528149 -125.716
2004000000 -38.124554 -69.542122 -0.96840346 85.763573 -0.96724963 85.749916 -47.634766 -129.88148
2005000000 -38.125252 -74.584831 -0.96928579 83.123062 -0.96655655 83.090668 -46.053879 -136.52968
2006000000 -38.628147 -75.138634 -0.97325093 80.467064 -0.96899456 80.446716 -44.503674 -134.93221
2007000000 -39.149551 -77.053032 -0.97155476 77.811119 -0.96711153 77.77977 -44.571716 -143.27457
2008000000 -39.100925 -80.633499 -0.97272009 75.164352 -0.96946573 75.14296 -43.707291 -140.79298
2009000000 -39.588692 -85.372147 -0.97203362 72.514297 -0.9670468 72.476532 -43.022259 -142.88144
2010000000 -40.281685 -86.08725 -0.96818674 69.835922 -0.9699809 69.831825 -42.872349 -145.88774
2011000000 -40.974583 -90.431534 -0.97183514 67.208389 -0.968023 67.19986 -42.202522 -147.64128
2012000000 -41.549011 -93.330597 -0.96986735 64.536667 -0.97158289 64.528282 -42.133041 -146.97646
2013000000 -41.74762 -96.573441 -0.97627443 61.886639 -0.96999002 61.891144 -41.491432 -150.31111
2014000000 -42.563595 -102.05908 -0.96934116 59.245548 -0.97199798 59.250042 -40.819229 -152.95161
2015000000 -42.585659 -105.93977 -0.97294354 56.617809 -0.97137767 56.587799 -40.905842 -152.64331
2016000000 -44.638004 -105.37508 -0.97194004 53.926861 -0.97359425 53.934063 -40.685493 -154.70592
2017000000 -45.322807 -103.28122 -0.97017056 51.305355 -0.97518235 51.278175 -40.014187 -158.42838
2018000000 -46.976452 -114.90072 -0.97371864 48.633484 -0.97293383 48.631645 -40.201782 -162.11096
2019000000 -48.896271 -105.25145 -0.97202069 46.010704 -0.9718309 45.963085 -39.717018 -164.32251
2020000000 -51.49123 -117.16768 -0.96978998 43.333183 -0.9717626 43.32058 -39.419151 -169.94099
2021000000 -54.175972 -110.67254 -0.9752031 40.71043 -0.97027898 40.671349 -39.321476 -167.89499
2022000000 -57.132843 -117.29314 -0.97565806 38.058983 -0.97245651 38.014534 -38.954212 -170.30827
2023000000 -64.325211 -74.323227 -0.97328299 35.408611 -0.97184581 35.36956 -38.805336 -173.51567
2024000000 -65.9095 -0.35912266 -0.97826201 32.733921 -0.97536999 32.711792 -38.96809 -176.17087
2025000000 -55.962101 85.633049 -0.97125107 30.104343 -0.97096622 30.064768 -38.552399 -179.08134
2026000000 -52.079353 42.658924 -0.97752345 27.444359 -0.97170758 27.428911 -38.937767 177.65096
2027000000 -49.512062 45.643692 -0.97410053 24.815022 -0.97830808 24.782902 -38.37611 177.12247
2028000000 -48.201767 47.219543 -0.97491729 22.155355 -0.97276676 22.122297 -38.724728 174.1292
2029000000 -46.092896 42.485096 -0.97870469 19.470547 -0.9760716 19.47998 -38.62093 171.47707
2030000000 -43.836555 41.820278 -0.9750132 16.841789 -0.97206408 16.82052 -38.817257 167.15921
2031000000 -43.607796 39.155197 -0.97506893 14.192217 -0.9748525 14.164147 -38.500633 163.00507
2032000000 -42.357956 35.290386 -0.98004162 11.56351 -0.97020942 11.511343 -38.185696 160.40909
2033000000 -40.795551 32.617908 -0.97623068 8.9096785 -0.97635323 8.8715315 -37.809296 158.94623
2034000000 -39.889172 28.588144 -0.97847444 6.2199936 -0.97770077 6.2115135 -37.559242 156.84639
2035000000 -39.566914 30.360424 -0.9781884 3.5958066 -0.97776175 3.5429921 -38.188972 155.84221
2036000000 -38.923359 26.582922 -0.97950739 0.94134778 -0.97376657 0.91573042 -38.212944 149.76692
2037000000 -38.38541 24.687611 -0.97764504 -1.7072128 -0.97721773 -1.7211523 -38.034241 146.71053
2038000000 -37.999645 20.866272 -0.97813785 -4.3542781 -0.97646374 -4.3675785 -37.86245 142.69946
2039000000 -37.260914 19.796019 -0.97712827 -6.9983354 -0.97970003 -7.018043 -38.217407 141.50925
2040000000 -37.17384 17.264229 -0.9791016 -9.6332626 -0.97871149 -9.7024717 -37.827538 137.12878
2041000000 -36.502693 14.187298 -0.97743917 -12.308904 -0.97726989 -12.325025 -38.054253 136.80963
2042000000 -35.962685 11.288005 -0.98226231 -14.964727 -0.97744501 -14.954337 -37.686481 133.51822
2043000000 -35.780117 9.814394 -0.98324192 -17.627644 -0.97534078 -17.626673 -38.170116 132.9641
2044000000 -35.331951 5.7472024 -0.98146302 -20.249821 -0.97471321 -20.282766 -37.958611 128.3741
2045000000 -35.178478 3.8546076 -0.97655416 -22.918722 -0.97810346 -22.917442 -38.480999 127.25772
2046000000 -34.864033 3.2899692 -0.98240477 -25.55488 -0.98004389 -25.581316 -38.226418 124.50191
2047000000 -34.834587 -1.6850485 -0.98041499 -28.206621 -0.97825748 -28.229193 -38.275272 122.09236
2048000000 -34.611145 -2.0300374 -0.9822824 -30.871035 -0.98170733 -30.888077 -38.381073 119.66138
2049000000 -34.191353 -6.1476312 -0.98382109 -33.523361 -0.97935265 -33.525284 -38.542938 119.03028
2050000000 -33.896484 -10.207408 -0.98323447 -36.177692 -0.97851884 -36.163502 -38.609516 114.84325
2051000000 -33.671497 -9.6591225 -0.98647285 -38.807808 -0.9793027 -38.810303 -38.706604 112.24281
2052000000 -33.652103 -12.891105 -0.98231423 -41.447823 -0.98056293 -41.482235 -39.044296 110.74612
2053000000 -33.495899 -16.460213 -0.98315847 -44.12841 -0.98051232 -44.105846 -39.001106 111.27189
2054000000 -33.434677 -19.054413 -0.98392856 -46.740917 -0.98292637 -46.78281 -39.407661 108.89481
2055000000 -33.356136 -23.234053 -0.98566788 -49.421776 -0.97729975 -49.426281 -39.235287 105.12614
2056000000 -33.197903 -25.850506 -0.98264432 -52.068935 -0.98348051 -52.070793 -39.689133 104.58769
2057000000 -33.140663 -29.965498 -0.98021322 -54.69994 -0.98121053 -54.742004 -39.801048 97.453674
2058000000 -33.027397 -30.42782 -0.98700827 -57.366753 -0.98143053 -57.371399 -40.490437 97.873474
2059000000 -32.805733 -33.719051 -0.98250151 -60.00946 -0.98109764 -60.029305 -40.747883 94.811745
2060000000 -32.868328 -36.981022 -0.98392498 -62.701576 -0.98504823 -62.650555 -40.775352 90.582825
2061000000 -32.801884 -39.026066 -0.985259 -65.335571 -0.98448378 -65.321213 -41.23576 93.596817
2062000000 -32.70472 -41.114872 -0.98910087 -67.956886 -0.98326886 -67.973076 -41.631664 83.738228
2063000000 -32.613258 -46.163876 -0.98209387 -70.629364 -0.98120242 -70.623436 -42.302509 87.729034
2064000000 -32.474632 -48.177155 -0.98389965 -73.241226 -0.98488325 -73.273758 -42.815884 83.570496
2065000000 -32.659634 -50.675587 -0.98400813 -75.924194 -0.98478615 -75.91906 -42.936794 73.516563
2066000000 -32.550079 -53.2369 -0.98490691 -78.563164 -0.97897124 -78.570343 -43.680267 79.399078
2067000000 -32.56636 -56.712711 -0.98193192 -81.214195 -0.98127931 -81.216019 -44.426704 71.748856
2068000000 -32.640762 -57.948097 -0.98824018 -83.865685 -0.98331887 -83.8647 -44.114006 68.171463
2069000000 -32.851112 -59.860161 -0.98955601 -86.503685 -0.98273194 -86.549942 -44.391895 68.267952
2070000000 -32.835308 -64.49115 -0.98526126 -89.15873 -0.98392367 -89.159691 -44.856728 64.964355
2071000000 -32.775738 -67.686096 -0.98555648 -91.804451 -0.98565882 -91.826431 -46.964195 64.008888
2072000000 -32.981373 -68.724251 -0.98979884 -94.469421 -0.98568445 -94.482773 -45.765301 59.928902
2073000000 -33.094288 -70.931763 -0.98921335 -97.118462 -0.98245186 -97.117424 -47.150528 58.496883
2074000000 -33.185947 -72.201744 -0.98596704 -99.759666 -0.98785704 -99.779373 -47.093979 54.827625
2075000000 -33.272552 -76.825203 -0.98523235 -102.42532 -0.98359221 -102.42761 -47.850266 50.577667
2076000000 -33.344845 -76.744911 -0.98804259 -105.04315 -0.98750609 -105.06989 -48.473793 39.015694
2077000000 -33.510601 -79.727112 -0.98520052 -107.72369 -0.98662424 -107.71327 -48.212173 42.501389
2078000000 -33.79282 -82.925316 -0.98680782 -110.34641 -0.98907882 -110.39577 -50.271198 38.886349
2079000000 -34.210682 -83.729927 -0.98940843 -113.03197 -0.98743522 -113.02553 -49.042927 31.495024
2080000000 -34.56731 -86.248398 -0.98902029 -115.66741 -0.98894519 -115.68352 -51.333759 38.181858
2081000000 -34.647835 -88.874542 -0.98866469 -118.29536 -0.98324871 -118.34795 -53.674416 42.45953
2082000000 -35.168068 -91.244484 -0.98957908 -120.97372 -0.98842835 -120.96698 -52.876579 27.388474
2083000000 -35.163048 -93.33654 -0.98754835 -123.59071 -0.98313379 -123.64208 -53.130642 24.626623
2084000000 -35.878944 -96.447296 -0.98496115 -126.23691 -0.98734814 -126.29032 -56.11845 34.821224
2085000000 -36.183193 -97.637566 -0.98862863 -128.89618 -0.98719347 -128.93718 -56.452888 29.230946
2086000000 -36.675068 -99.130722 -0.98787588 -131.55037 -0.98599339 -131.57588 -65.038887 15.54419
2087000000 -36.834076 -102.05427 -0.98825288 -134.22049 -0.98638189 -134.2253 -61.238724 31.619503
2088000000 -37.384254 -104.04648 -0.98866761 -136.86552 -0.98844594 -136.87093 -63.593819 10.576248
2089000000 -37.802601 -105.09984 -0.98716229 -139.52104 -0.99131745 -139.52539 -67.466217 19.73675
2090000000 -38.463112 -107.58537 -0.99069828 -142.16133 -0.98418182 -142.19975 -77.970863 -126.00897
2091000000 -39.199322 -110.14581 -0.9929719 -144.83615 -0.9875834 -144.8405 -69.566483 3.862767
2092000000 -39.794792 -107.86286 -0.9938153 -147.47536 -0.98846346 -147.50334 -67.774994 -147.15775
2093000000 -40.371872 -112.92001 -0.99441904 -150.12074 -0.98784697 -150.13982 -63.465553 151.23808
2094000000 -41.625488 -115.78728 -0.98909277 -152.77393 -0.98640269 -152.78033 -61.132992 168.14084
2095000000 -42.043575 -111.28079 -0.9931131 -155.42137 -0.98981708 -155.41743 -56.21064 160.42638
2096000000 -43.122265 -112.12075 -0.99132264 -158.05713 -0.98879796 -158.07829 -55.812832 138.92183
2097000000 -44.541939 -113.56685 -0.99117631 -160.72752 -0.98736244 -160.70735 -52.391476 167.50005
2098000000 -45.841881 -117.38535 -0.99221355 -163.37892 -0.99008209 -163.38478 -54.425579 175.86012
2099000000 -46.811607 -114.65398 -0.98911291 -166.0305 -0.98941815 -166.03865 -54.138565 168.99606
2100000000 -48.75214 -103.99567 -0.9902066 -168.64746 -0.99187851 -168.71121 -52.320557 167.2644
2101000000 -49.284073 -99.788498 -0.99571782 -171.30562 -0.99222529 -171.35129 -53.737495 156.11307
2102000000 -52.836231 -90.337784 -0.99898118 -173.97386 -0.98820478 -173.9827 -50.797905 158.42584
2103000000 -52.455647 -72.015968 -0.99432755 -176.62468 -0.98872447 -176.62372 -50.511444 154.28407
2104000000 -52.201946 -53.318974 -0.99264234 -179.27808 -0.99060458 -179.27716 -49.535831 166.07811
2105000000 -52.941841 -38.338646 -0.9956677 178.06195 -0.98844332 178.06372 -50.850452 154.85794
2106000000 -51.336189 -26.38876 -0.9902674 175.45757 -0.99194586 175.40036 -50.695412 161.03569
2107000000 -50.0383 -21.058334 -0.99316096 172.77034 -0.9947266 172.77596 -49.311516 156.47275
2108000000 -47.248131 -18.16729 -0.99253172 170.13426 -0.99348664 170.11639 -48.351662 150.44186
2109000000 -46.967709 -22.264761 -0.99402422 167.48349 -0.99086022 167.44492 -49.275238 148.31302
2110000000 -44.884518 -16.268164 -0.99736744 164.82285 -0.99246728 164.82719 -48.522423 159.49133
2111000000 -44.519085 -18.880917 -0.99434352 162.17577 -0.98921013 162.16064 -49.163395 150.53624
2112000000 -43.871624 -14.260957 -0.99497497 159.53423 -0.99125499 159.50926 -47.632065 147.93033
2113000000 -42.847107 -22.082491 -0.99581552 156.87006 -0.99495119 156.8503 -50.090561 148.84259
2114000000 -41.638489 -19.774721 -0.99203271 154.22539 -0.99294001 154.20555 -47.812469 145.57524
2115000000 -41.689281 -19.452044 -0.9994657 151.56975 -0.99411279 151.58093 -47.984169 151.76982
2116000000 -40.692265 -23.680069 -0.99773091 148.92865 -0.99387747 148.89879 -48.719315 146.4648
2117000000 -40.068535 -29.602047 -0.99730688 146.27971 -0.99262148 146.27261 -50.052406 141.44859
2118000000 -39.379025 -26.037579 -0.99631655 143.60335 -0.99271941 143.60991 -48.588028 152.40125
2119000000 -39.268768 -28.204006 -0.99747658 141.00066 -0.99319834 140.98152 -49.239765 156.72359
2120000000 -38.582344 -30.965752 -0.99624366 138.31729 -0.99473506 138.29538 -48.607365 155.76184
2121000000 -38.11834 -34.828667 -0.99696916 135.68246 -0.99339032 135.66725 -50.268795 145.0378
2122000000 -38.006268 -37.040371 -0.99897534 133.03058 -0.9964416 133.00073 -49.666046 149.2742
2123000000 -37.351551 -36.745102 -0.99618697 130.38126 -0.99403203 130.35672 -51.037079 149.16568
2124000000 -37.403675 -39.156666 -0.9996208 127.72122 -0.9922412 127.70752 -50.970783 148.73773
2125000000 -36.850323 -42.600998 -0.99671972 125.09258 -0.9981423 125.04624 -52.056671 149.63512
2126000000 -36.662651 -43.357777 -0.99754429 122.45252 -0.99420941 122.40182 -53.447044 161.1185
2127000000 -36.473881 -46.920719 -1.0012012 119.75494 -0.99449551 119.77927 -52.703293 141.59213
2128000000 -36.186691 -50.408485 -1.0000105 117.09837 -0.9986766 117.0867 -52.059338 152.01315
2129000000 -35.838936 -53.313988 -1.0009958 114.4639 -0.99584609 114.46464 -52.81218 152.28708
2130000000 -36.053135 -54.100288 -0.99800128 111.81041 -0.99485028 111.798 -53.425941 160.77144
2131000000 -35.80151 -54.935299 -1.000442 109.16653 -0.99647743 109.16449 -52.83709 168.66483
2132000000 -35.87727 -59.195507 -0.99993169 106.5477 -0.99346358 106.48796 -54.472042 162.41124
2133000000 -35.702492 -59.150394 -1.0023973 103.87325 -0.99696165 103.85656 -55.900806 177.37218
2134000000 -35.352421 -62.115612 -0.99718344 101.23257 -0.9981482 101.19756 -53.683006 161.39485
2135000000 -35.656887 -64.328117 -1.0020941 98.580673 -0.99942499 98.537086 -54.38166 173.46971
2136000000 -35.774326 -66.400528 -0.9991467 95.917847 -0.9975915 95.925087 -54.56316 167.01645
2137000000 -35.6068 -70.077271 -1.0009971 93.251907 -0.99659073 93.257126 -53.48637 -171.961
2138000000 -35.700703 -70.474731 -1.0024629 90.630104 -0.99897796 90.623993 -56.13422 -173.11894
2139000000 -35.40382 -75.972748 -1.0000073 87.986206 -0.99946928 87.965637 -53.044392 -173.95506
2140000000 -35.927402 -74.645317 -1.0017717 85.324783 -1.0010982 85.3162 -54.716499 -171.66498
2141000000 -35.733395 -75.837654 -0.99926889 82.658348 -1.0052063 82.682709 -52.425488 -173.214
2142000000 -35.993965 -78.159355 -1.002472 80.009453 -1.0007018 79.982307 -54.55687 179.2291
2143000000 -36.0947 -80.743134 -1.0016073 77.356422 -0.99937838 77.3321 -52.390114 172.31934
2144000000 -36.497719 -83.98806 -1.0017723 74.725136 -0.99985576 74.707024 -51.722721 -176.285
2145000000 -36.615738 -86.291542 -0.99919593 72.066177 -0.99912751 72.061607 -51.288387 173.06004
2146000000 -36.779892 -88.664307 -1.0018307 69.42897 -1.0006311 69.382156 -50.411594 -176.08252
2147000000 -37.103436 -89.782417 -1.0029289 66.768997 -0.99977267 66.745346 -50.983089 177.77766
2148000000 -37.422173 -95.200447 -1.0026181 64.12368 -0.99672884 64.126167 -49.77795 -168.36523
2149000000 -38.233894 -95.573654 -1.0017302 61.468929 -1.0007123 61.436241 -48.842907 -177.1727
2150000000 -37.883816 -96.923729 -1.0032759 58.822903 -1.0008664 58.781326 -48.898281 174.91936
2151000000 -38.464401 -99.929672 -1.0025643 56.17992 -1.001757 56.148357 -49.350185 -175.88808
2152000000 -39.022289 -103.88391 -1.0033805 53.526051 -1.0019745 53.496712 -48.322105 -179.82144
2153000000 -39.433445 -104.43198 -1.0034503 50.85545 -1.0034245 50.838886 -48.767822 -176.51753
2154000000 -39.624908 -106.81405 -1.0071964 48.222374 -0.9988603 48.209549 -47.746883 173.54521
2155000000 -39.853176 -107.10581 -1.0050876 45.572651 -1.0030515 45.558277 -47.723263 175.62027
2156000000 -40.800743 -110.85001 -1.0018268 42.940117 -1.0032002 42.912666 -47.348652 -178.92789
2157000000 -41.476185 -109.11881 -1.005162 40.249176 -1.0059307 40.250214 -46.979885 178.70079
2158000000 -42.036835 -112.53725 -1.0056129 37.609795 -1.0051348 37.600029 -46.333054 -177.04372
2159000000 -42.092636 -112.69987 -1.0056034 34.954117 -1.0023253 34.954094 -46.558796 176.7314
2160000000 -42.807644 -117.21073 -1.0089813 32.320259 -1.0035752 32.325031 -46.12767 172.17732
2161000000 -43.46093 -116.6401 -1.002731 29.660517 -1.0045506 29.647223 -46.117462 175.51752
2162000000 -44.717915 -111.76494 -1.007234 27.016479 -1.0051209 27.001953 -46.187618 176.27217
2163000000 -44.975609 -120.73126 -1.0080563 24.352268 -1.001761 24.362423 -45.717903 177.68478
2164000000 -46.528004 -115.06454 -1.0037879 21.712524 -1.0058912 21.694998 -45.885571 171.89954
2165000000 -47.115086 -115.75753 -1.005977 19.068556 -1.004058 19.041691 -46.683949 169.66553
2166000000 -48.575779 -114.6606 -1.0055854 16.419334 -1.0057398 16.401117 -45.072563 171.067
2167000000 -48.997818 -111.01608 -1.0094543 13.750604 -1.0064118 13.762262 -45.471802 175.22639
2168000000 -50.614708 -93.920265 -1.0072725 11.117398 -1.0018473 11.093909 -45.702175 169.6172
2169000000 -50.738579 -91.557495 -1.0113306 8.4394779 -1.0066915 8.4367418 -45.21899 170.13583
2170000000 -51.652363 -79.798988 -1.0090568 5.8178449 -1.0090486 5.7984729 -45.378551 171.74699
2171000000 -52.241604 -67.63398 -1.0084321 3.1837733 -1.0055075 3.1394169 -44.856998 167.22969
2172000000 -50.603107 -55.348228 -1.0110198 0.50634497 -1.006088 0.49720678 -46.256504 165.78404
2173000000 -50.539791 -44.311886 -1.0104368 -2.1314943 -1.0047294 -2.1415458 -45.899776 162.90587
2174000000 -49.180275 -42.008003 -1.012238 -4.7963057 -1.0082114 -4.8163152 -45.847977 171.49304
2175000000 -47.104427 -39.005791 -1.0129744 -7.4353046 -1.005051 -7.4419217 -45.865532 164.13002
2176000000 -45.940769 -33.411427 -1.0108863 -10.096266 -1.0077138 -10.121199 -47.083714 162.43231
2177000000 -45.872879 -28.89539 -1.0111032 -12.732388 -1.0044037 -12.747274 -45.636879 166.00729
2178000000 -44.65295 -34.028336 -1.0103803 -15.396635 -1.0096378 -15.40596 -46.626793 162.18233
2179000000 -43.421631 -30.172596 -1.0091133 -18.02109 -1.008772 -18.05394 -46.094421 162.44447
2180000000 -42.784557 -32.911255 -1.012706 -20.674423 -1.010278 -20.703728 -46.228401 164.18834
2181000000 -41.355865 -30.974344 -1.0113453 -23.331491 -1.0071797 -23.359894 -45.195641 161.20145
2182000000 -41.108143 -36.456272 -1.013132 -25.97633 -1.010177 -26.01796 -46.870071 158.56291
2183000000 -40.800598 -38.34848 -1.0125377 -28.647842 -1.0061275 -28.673639 -46.645805 160.12158
2184000000 -40.081249 -36.745415 -1.0108824 -31.276197 -1.008597 -31.291451 -46.335457 164.20897
2185000000 -39.317822 -38.592312 -1.0110333 -33.943653 -1.0106435 -33.949169 -45.609486 159.63377
2186000000 -39.067085 -40.592316 -1.0135592 -36.597176 -1.0122498 -36.614552 -46.782387 164.10037
2187000000 -38.786636 -42.785969 -1.0123968 -39.252598 -1.0123106 -39.269924 -47.813309 157.49361
2188000000 -38.299568 -45.112896 -1.0149776 -41.883121 -1.0055137 -41.925095 -47.031696 158.01164
2189000000 -37.941319 -48.67522 -1.0139161 -44.538864 -1.009921 -44.581005 -48.189011 156.80136
2190000000 -37.599133 -49.097767 -1.0134951 -47.197163 -1.0097554 -47.216095 -47.986164 156.02487
2191000000 -37.20752 -50.418556 -1.011693 -49.846951 -1.0100186 -49.861111 -47.052631 162.06198
2192000000 -37.134895 -53.319405 -1.0135474 -52.524128 -1.0080138 -52.506462 -47.474312 161.03406
2193000000 -36.904549 -53.350163 -1.0115603 -55.133389 -1.0122086 -55.175041 -46.348083 158.63174
2194000000 -36.454102 -56.595943 -1.011362 -57.793373 -1.0112202 -57.826977 -46.200409 160.92177
2195000000 -36.633369 -58.905315 -1.0093889 -60.447525 -1.0143073 -60.464066 -47.507366 158.97672
2196000000 -36.167187 -59.144398 -1.0115622 -63.075027 -1.0117223 -63.108639 -46.965511 161.18364
2197000000 -35.999825 -64.269356 -1.013736 -65.763573 -1.0137821 -65.772461 -45.871498 162.48802
2198000000 -35.910683 -64.013893 -1.0160172 -68.3853 -1.0105413 -68.418198 -45.992943 159.34996
2199000000 -36.102627 -68.621544 -1.0142313 -71.07859 -1.0123093 -71.053314 -46.305798 161.22183
2200000000 -36.11396 -69.539864 -1.0154092 -73.689941 -1.0125473 -73.726448 -45.360786 161.88716
2201000000 -36.129814 -73.946396 -1.0175198 -76.362892 -1.0164542 -76.355049 -45.045918 157.22324
2202000000 -35.798275 -75.648109 -1.0170666 -78.987366 -1.0118446 -79.024696 -44.910744 158.96326
2203000000 -36.261482 -78.179161 -1.0184944 -81.656166 -1.0154432 -81.6689 -44.792641 156.75899
2204000000 -36.216343 -80.163544 -1.0181615 -84.297943 -1.0139972 -84.32399 -44.540512 157.20602
2205000000 -36.29583 -81.825302 -1.017169 -86.959946 -1.013532 -86.964439 -44.83717 157.68365
2206000000 -36.122162 -85.581017 -1.0209901 -89.610954 -1.0169358 -89.604439 -43.553585 157.12566
2207000000 -36.29216 -87.503273 -1.0197319 -92.251968 -1.0144442 -92.255928 -43.84734 156.96819
2208000000 -36.207619 -91.392448 -1.0173562 -94.894691 -1.01875 -94.928772 -44.083412 155.44431
2209000000 -36.369301 -96.216728 -1.0179422 -97.582848 -1.015228 -97.549332 -43.237858 152.88487
2210000000 -36.187626 -99.831696 -1.0158906 -100.19862 -1.0123518 -100.19807 -42.79813 158.55598
2211000000 -36.764061 -101.48246 -1.0207521 -102.8752 -1.0144534 -102.88687 -42.759171 155.61281
2212000000 -36.86327 -105.82417 -1.017652 -105.51957 -1.0147859 -105.52919 -42.144669 150.27396
2213000000 -36.88884 -108.18671 -1.0197862 -108.16053 -1.014079 -108.16404 -42.361805 155.43138
2214000000 -36.97422 -108.69641 -1.0190406 -110.79068 -1.0177633 -110.81843 -42.706505 152.39885
2215000000 -37.03846 -114.32069 -1.0197394 -113.42868 -1.0148872 -113.481 -42.113564 153.38211
2216000000 -37.388638 -118.68186 -1.0220978 -116.11584 -1.0174435 -116.13625 -41.744843 149.52982
2217000000 -37.698772 -120.68246 -1.0174932 -118.74992 -1.0144861 -118.75888 -41.991943 151.25204
2218000000 -37.627747 -125.05212 -1.0219707 -121.40406 -1.0168059 -121.41708 -41.891972 155.66667
2219000000 -38.176758 -126.26839 -1.0183787 -124.05662 -1.0176202 -124.0951 -41.836193 146.43935
2220000000 -38.21439 -128.31834 -1.0256737 -126.6903 -1.0155417 -126.70855 -41.636784 148.74292
2221000000 -38.287628 -132.35991 -1.0203288 -129.33293 -1.0195097 -129.38464 -41.146908 150.55795
2222000000 -38.479527 -138.89253 -1.0176052 -131.98555 -1.0211821 -132.03325 -42.199989 144.01396
2223000000 -39.140209 -142.20969 -1.0187306 -134.66168 -1.0184779 -134.67767 -41.665295 145.87685
2224000000 -39.541504 -144.57083 -1.0245318 -137.32077 -1.019434 -137.32422 -41.530544 138.82281
2225000000 -39.73312 -148.67532 -1.02141 -139.95404 -1.0181946 -139.96173 -41.368702 141.75577
2226000000 -40.362892 -151.89018 -1.0203857 -142.59373 -1.0173604 -142.63934 -41.177223 139.34808
2227000000 -40.607208 -154.76509 -1.022033 -145.25096 -1.0211234 -145.29785 -41.530914 137.52054
2228000000 -41.398651 -159.53012 -1.0190605 -147.90387 -1.0197506 -147.91273 -41.165802 138.5934
2229000000 -41.671616 -158.80518 -1.0257829 -150.55083 -1.0198841 -150.58769 -41.414932 136.37083
2230000000 -42.661781 -165.87234 -1.0233958 -153.18306 -1.0186894 -153.22566 -42.347778 135.48642
2231000000 -43.534492 -170.60262 -1.0231113 -155.8576 -1.0198367 -155.85814 -41.417812 134.90807
2232000000 -44.161983 -168.89351 -1.0235521 -158.50505 -1.0208141 -158.50922 -41.91254 128.05025
2233000000 -44.885727 -174.83488 -1.0235111 -161.1624 -1.0220163 -161.16353 -41.701069 129.46068
2234000000 -46.204651 171.33104 -1.0183594 -163.82011 -1.0191613 -163.83473 -42.072365 127.34119
2235000000 -48.048832 166.90919 -1.0237342 -166.45789 -1.0198995 -166.4838 -42.624126 123.47565
2236000000 -48.135666 164.43134 -1.0244961 -169.11887 -1.0227038 -169.12256 -42.832058 127.56136
2237000000 -50.314007 147.79066 -1.023342 -171.76009 -1.0220958 -171.74918 -42.387585 124.38445
2238000000 -51.878422 149.36215 -1.0254112 -174.39624 -1.024933 -174.41411 -43.032879 123.65977
2239000000 -52.986671 122.72105 -1.0273479 -177.05635 -1.0220759 -177.08441 -42.590481 119.58708
2240000000 -54.712833 97.15239 -1.0250241 -179.7088 -1.020053 -179.74152 -43.265915 113.10112
2241000000 -54.842926 82.447586 -1.0258331 177.65036 -1.0231668 177.63202 -43.154449 113.15984
2242000000 -52.395916 53.731194 -1.0265472 174.99646 -1.0226766 174.95969 -44.646488 111.57896
2243000000 -52.546154 42.937546 -1.025721 172.34872 -1.025409 172.33417 -44.361492 111.06474
2244000000 -48.554596 32.701473 -1.023883 169.67159 -1.0224882 169.67783 -43.85656 113.36426
2245000000 -47.989296 28.091351 -1.0279498 167.02278 -1.0268236 167.04329 -44.5937 109.87829
2246000000 -46.308121 19.00021 -1.022598 164.40393 -1.0239705 164.36523 -44.436008 102.02673
2247000000 -46.12281 12.070447 -1.0288197 161.74873 -1.0272453 161.69923 -45.061733 102.43295
2248000000 -44.798489 -0.2390486 -1.0264468 159.09148 -1.0214159 159.06015 -45.382256 97.610962
2249000000 -44.166374 -4.6941767 -1.0258912 156.42003 -1.025404 156.43089 -45.118576 101.50247
2250000000 -42.588017 -4.9166131 -1.0289575 153.78201 -1.0244427 153.79524 -45.091858 104.75092
2251000000 -42.766869 -6.8291807 -1.0258423 151.11594 -1.028366 151.11333 -46.163326 107.45546
2252000000 -41.931763 -8.0407076 -1.030988 148.51007 -1.023401 148.45071 -45.435711 97.595375
2253000000 -41.44326 -16.771202 -1.026257 145.84171 -1.0248311 145.82831 -46.752792 96.626999
2254000000 -40.768764 -17.039286 -1.0278946 143.18561 -1.0262734 143.19432 -47.476795 104.95069
2255000000 -40.022419 -21.146393 -1.0316186 140.54964 -1.0214061 140.50871 -47.300495 103.47393
2256000000 -40.496231 -23.332962 -1.0294814 137.88718 -1.0261439 137.86638 -48.383301 104.64425
2257000000 -39.86348 -29.238371 -1.0276431 135.25436 -1.022349 135.23294 -48.27494 109.97066
2258000000 -39.39016 -30.670122 -1.0267292 132.61372 -1.025781 132.55972 -48.431404 105.35865
2259000000 -39.290295 -34.92083 -1.027402 129.94287 -1.0252074 129.91107 -49.744873 112.75593
2260000000 -39.27306 -37.673721 -1.029636 127.29287 -1.0294818 127.25193 -49.374989 110.74959
2261000000 -38.769634 -42.592861 -1.0293524 124.64259 -1.0288852 124.61993 -50.757027 117.00867
2262000000 -38.5028 -45.054203 -1.0290388 121.98566 -1.0243171 121.98119 -49.670395 133.51613
2263000000 -38.822643 -47.385044 -1.0304383 119.3478 -1.0251628 119.32118 -49.981499 128.05162
2264000000 -38.401608 -52.725113 -1.033627 116.67432 -1.0267905 116.67003 -49.363388 141.99411
2265000000 -38.121822 -57.176376 -1.0290798 114.01498 -1.0287266 114.02958 -50.000847 148.53229
2266000000 -37.96949 -61.132217 -1.0301367 111.38231 -1.0267233 111.3876 -49.906105 151.91359
2267000000 -38.015648 -63.074993 -1.0288318 108.74332 -1.0306706 108.70937 -47.78577 151.21298
2268000000 -37.975704 -65.974762 -1.0331358 106.08436 -1.0275434 106.078 -47.660103 163.17938
2269000000 -38.101387 -70.948654 -1.027836 103.451 -1.028659 103.41044 -46.44598 162.74353
2270000000 -38.013584 -76.644974 -1.0300399 100.77872 -1.0283463 100.76734 -46.592449 159.42912
2271000000 -37.568001 -79.444298 -1.0307094 98.117531 -1.0316941 98.144714 -45.829021 164.69795
2272000000 -37.947361 -82.723358 -1.0323772 95.497673 -1.0320154 95.469185 -45.388817 163.89215
2273000000 -37.856201 -86.651077 -1.0318792 92.862144 -1.0333354 92.820808 -45.052929 166.35019
2274000000 -37.795376 -89.728867 -1.0324517 90.192154 -1.0315562 90.139931 -43.843208 168.39594
2275000000 -37.986759 -92.184029 -1.033967 87.552155 -1.031244 87.510315 -43.406528 160.97984
2276000000 -37.942406 -98.214546 -1.0318234 84.892601 -1.0286839 84.878601 -43.083134 166.74936
2277000000 -37.610489 -99.541084 -1.0334796 82.248138 -1.0300993 82.216621 -42.56765 166.29796
2278000000 -37.639832 -104.10953 -1.0364044 79.561066 -1.0285569 79.544167 -42.577679 166.9005
2279000000 -38.050468 -109.28965 -1.0326889 76.942863 -1.0293378 76.89357 -41.959782 163.70914
2280000000 -37.539417 -113.48112 -1.0311261 74.277061 -1.0310441 74.260162 -41.732861 165.20665
2281000000 -37.848225 -114.88129 -1.0338533 71.640465 -1.0314378 71.616081 -41.874855 159.23897
2282000000 -37.811565 -118.51474 -1.0350244 68.985123 -1.0346923 68.935196 -40.927467 161.37468
2283000000 -38.24102 -123.77589 -1.0312231 66.306641 -1.0326241 66.318977 -40.778198 160.09494
2284000000 -38.139805 -124.53358 -1.0357051 63.694347 -1.0329762 63.658089 -40.910896 159.60617
2285000000 -38.3424 -127.65388 -1.0376908 61.026642 -1.033668 60.999008 -40.444431 157.42728
2286000000 -38.577564 -132.58035 -1.0352041 58.394627 -1.031162 58.339714 -40.828289 153.8721
2287000000 -38.537365 -136.26704 -1.031034 55.735371 -1.0374324 55.718517 -39.973629 153.14339
2288000000 -38.827808 -138.36026 -1.0354422 53.075161 -1.035575 53.065704 -40.251068 152.83348
2289000000 -39.210033 -144.72554 -1.0332307 50.425465 -1.0355086 50.423573 -39.627766 150.52843
2290000000 -39.594601 -147.80595 -1.0343713 47.781063 -1.0346416 47.786892 -40.125042 149.79753
2291000000 -40.086952 -151.55161 -1.0350822 45.12772 -1.0320733 45.122948 -39.512451 147.60553
2292000000 -40.63343 -152.15637 -1.0412722 42.476551 -1.0343825 42.451046 -39.718021 143.60609
2293000000 -40.156097 -160.16466 -1.0384252 39.827045 -1.0331601 39.838863 -39.544636 145.22502
2294000000 -41.200157 -163.43762 -1.0387695 37.166218 -1.0346643 37.196449 -39.682407 141.17914
2295000000 -41.45887 -169.40955 -1.0344383 34.535145 -1.0333446 34.513031 -39.061466 138.3009
2296000000 -42.051678 -172.36697 -1.0376707 31.882097 -1.0384437 31.860781 -39.685684 134.6716
2297000000 -41.585598 -176.60069 -1.0405526 29.23896 -1.0342869 29.217146 -39.517387 133.13943
2298000000 -42.432163 173.52394 -1.0358441 26.580376 -1.0371238 26.586494 -38.926811 131.70787
2299000000 -43.066906 170.87819 -1.0367725 23.942966 -1.0336231 23.910728 -39.064167 129.12808
2300000000 -44.078903 163.21806 -1.0399816 21.289446 -1.0370843 21.266497 -38.983715 127.86362
2301000000 -44.510742 150.35049 -1.0400047 18.648531 -1.0335009 18.6022 -38.829933 122.83228
2302000000 -44.829914 145.34229 -1.0373056 15.997961 -1.0377408 15.963388 -39.173409 122.03132
2303000000 -45.700401 138.96213 -1.0410037 13.338885 -1.037392 13.318156 -39.191273 117.7547
2304000000 -45.830982 130.71236 -1.0375748 10.695662 -1.0390507 10.667212 -38.864922 120.14979
2305000000 -45.221474 113.21378 -1.038083 8.0302258 -1.0378762 8.012145 -39.423752 114.74152
2306000000 -46.159344 107.78034 -1.0364119 5.3713274 -1.0343887 5.3536606 -39.250374 112.17622
2307000000 -46.4972 92.200035 -1.0391293 2.7279201 -1.0361789 2.7126074 -38.931812 109.91472
2308000000 -45.835583 81.965919 -1.0387132 0.076193154 -1.0346169 0.048494637 -39.137299 107.81828
2309000000 -45.582783 74.716591 -1.040355 -2.5591216 -1.0406806 -2.6038783 -39.13039 109.69014
2310000000 -44.974197 64.036285 -1.0421147 -5.219368 -1.0393677 -5.2285376 -39.259102 109.26206
2311000000 -45.780331 60.50383 -1.0412681 -7.8702168 -1.0370312 -7.9199905 -39.344105 102.92228
2312000000 -44.536716 55.201263 -1.0455891 -10.523141 -1.0400784 -10.522202 -39.37162 103.50992
2313000000 -43.916588 44.812275 -1.0390664 -13.166612 -1.0393516 -13.192652 -39.842297 101.07573
2314000000 -43.74115 46.303356 -1.0395021 -15.826224 -1.0374765 -15.852674 -40.48653 95.193787
2315000000 -42.988087 34.288071 -1.0402372 -18.485344 -1.0408589 -18.477182 -39.968449 97.092239
2316000000 -42.850201 29.052559 -1.0441867 -21.129827 -1.0400244 -21.137341 -40.618599 93.962219
2317000000 -42.208069 22.029064 -1.0420069 -23.798557 -1.0373292 -23.802355 -40.920452 94.046799
2318000000 -41.832973 19.19327 -1.0452561 -26.420757 -1.0417616 -26.421999 -41.428642 94.393211
2319000000 -42.038254 13.32079 -1.0413942 -29.110577 -1.0412287 -29.101353 -41.119324 91.978729
2320000000 -41.123081 7.4500623 -1.0370095 -31.710218 -1.0390921 -31.743862 -41.778847 87.98011
2321000000 -41.136829 4.5214958 -1.0456237 -34.369778 -1.0383571 -34.405285 -42.135147 89.311501
2322000000 -41.649895 0.72707778 -1.042528 -37.030933 -1.0398672 -37.051277 -43.266403 84.390343
2323000000 -41.073761 -3.1455975 -1.0429211 -39.688274 -1.0417235 -39.678829 -43.788879 88.291977
2324000000 -40.583065 -10.781868 -1.0446351 -42.330524 -1.0407237 -42.339165 -43.821022 87.194534
2325000000 -40.634758 -13.110564 -1.0457389 -44.946556 -1.041326 -44.980545 -44.927467 83.395248
2326000000 -40.396774 -17.514778 -1.0424142 -47.634983 -1.0424116 -47.629726 -45.235229 88.879906
2327000000 -40.156132 -22.52482 -1.0434635 -50.266144 -1.0422714 -50.293701 -46.000069 85.605545
2328000000 -40.059418 -27.830286 -1.0435879 -52.937744 -1.044644 -52.943726 -46.417446 98.276184
2329000000 -40.153717 -32.860756 -1.0451448 -55.573277 -1.041312 -55.587658 -47.733139 91.850433
2330000000 -40.09417 -35.076569 -1.0452485 -58.233955 -1.0452344 -58.24741 -49.040405 90.941811
2331000000 -39.817421 -39.979698 -1.044511 -60.880604 -1.0423809 -60.909996 -48.975307 98.977409
2332000000 -39.318409 -49.696712 -1.044996 -63.542194 -1.0466479 -63.562328 -50.013008 102.68891
2333000000 -39.612556 -50.804249 -1.0448623 -66.191872 -1.0404382 -66.195328 -50.972836 121.66601
2334000000 -39.238415 -53.092979 -1.0474524 -68.833153 -1.0457655 -68.862297 -51.253544 122.79973
2335000000 -38.779694 -58.670235 -1.0441554 -71.48835 -1.0446724 -71.490753 -49.470776 131.20427
2336000000 -39.070412 -64.955093 -1.051667 -74.108643 -1.0418124 -74.160789 -51.069534 138.94783
2337000000 -38.873535 -67.985275 -1.0431902 -76.786842 -1.0433913 -76.809235 -50.539288 148.56482
2338000000 -38.721428 -71.856926 -1.046034 -79.435532 -1.0428592 -79.444084 -50.782246 156.62082
2339000000 -38.74828 -77.506538 -1.0477121 -82.071831 -1.0413814 -82.083 -48.733246 153.43826
2340000000 -38.429897 -79.364212 -1.0459204 -84.724968 -1.0438473 -84.758888 -47.25177 165.28514
2341000000 -38.512634 -85.43354 -1.0467544 -87.391754 -1.046119 -87.395576 -46.064911 162.72145
2342000000 -38.910568 -88.84166 -1.0507743 -90.038368 -1.0460811 -90.048325 -46.673771 166.36502
2343000000 -38.379089 -92.55896 -1.0442548 -92.687263 -1.0482274 -92.675758 -45.247166 164.42125
2344000000 -38.332638 -98.635483 -1.0466809 -95.325668 -1.0453697 -95.344391 -44.331757 161.02304
2345000000 -38.61726 -103.13753 -1.0475991 -97.994354 -1.0452746 -98.021217 -43.202435 164.29735
2346000000 -38.299629 -107.45774 -1.0440283 -100.62238 -1.0468709 -100.64729 -43.498707 165.40334
2347000000 -38.692345 -111.59149 -1.0467049 -103.27619 -1.0416534 -103.30947 -41.64526 164.09148
2348000000 -38.864716 -116.27556 -1.0501955 -105.92607 -1.0450984 -106.00092 -41.83931 156.53307
2349000000 -38.819172 -119.27515 -1.0477009 -108.60155 -1.0459579 -108.60606 -41.475254 160.93887
2350000000 -38.938873 -120.98808 -1.0515925 -111.21978 -1.0461233 -111.26886 -41.02203 157.9509
2351000000 -39.167774 -125.78161 -1.0547401 -113.88251 -1.0483048 -113.90395 -40.420006 157.57886
2352000000 -39.039875 -134.3488 -1.0471625 -116.52518 -1.0489132 -116.54535 -40.219604 155.33284
2353000000 -39.195511 -138.04083 -1.048002 -119.19111 -1.0476695 -119.22225 -39.505215 149.6554
2354000000 -38.908554 -142.35233 -1.0488865 -121.83674 -1.0462935 -121.85528 -39.136963 149.10802
2355000000 -39.658379 -150.34445 -1.0519731 -124.48888 -1.0455611 -124.52512 -38.914585 145.11496
2356000000 -39.407471 -152.81223 -1.05036 -127.12663 -1.0510023 -127.16254 -38.498371 145.5778
2357000000 -39.81971 -161.85117 -1.0483888 -129.81087 -1.0502231 -129.82314 -38.100231 142.03087
2358000000 -40.358868 -167.6093 -1.0497299 -132.43584 -1.04923 -132.45924 -37.516956 143.44415
2359000000 -40.280922 -173.08481 -1.0515997 -135.09706 -1.0467501 -135.1189 -37.332588 138.49728
2360000000 -39.847912 -177.09938 -1.0536468 -137.72629 -1.0478498 -137.74751 -37.328709 137.34322
2361000000 -40.34774 173.02315 -1.0494059 -140.414 -1.0519451 -140.39664 -36.767811 133.23111
2362000000 -40.159042 170.08101 -1.0548347 -143.05826 -1.0522785 -143.05167 -36.45734 131.95876
2363000000 -40.354233 158.38536 -1.0526881 -145.69171 -1.0492046 -145.71935 -36.231064 129.43994
2364000000 -40.268627 152.06203 -1.0517597 -148.36432 -1.0512027 -148.38205 -36.002247 129.07076
2365000000 -40.220509 145.08672 -1.0524813 -151.00565 -1.0507704 -151.00667 -35.774231 126.53915
2366000000 -39.982952 138.30832 -1.0530068 -153.6449 -1.0510497 -153.65857 -35.314915 122.85008
2367000000 -40.074997 131.99815 -1.0551034 -156.31519 -1.0495443 -156.30276 -35.245735 121.49755
2368000000 -39.772156 125.93525 -1.0531193 -158.94763 -1.0507259 -158.98236 -35.297028 118.76971
2369000000 -39.612877 119.50616 -1.0546466 -161.58708 -1.0552936 -161.6203 -34.905792 119.0181
2370000000 -39.255657 112.46936 -1.0568827 -164.25151 -1.0498474 -164.25616 -34.774479 115.73743
2371000000 -38.817146 104.86242 -1.0543345 -166.93608 -1.0512142 -166.93118 -34.774261 113.22365
2372000000 -38.501015 100.23903 -1.0537237 -169.55344 -1.0561633 -169.56177 -34.664703 112.43441
2373000000 -38.380764 97.43055 -1.0569725 -172.18217 -1.0561029 -172.21599 -34.624233 110.40282
2374000000 -37.834171 89.565926 -1.0550532 -174.8257 -1.0521934 -174.84763 -34.363422 106.59345
2375000000 -37.699234 85.360855 -1.0579702 -177.48041 -1.055216 -177.52437 -34.191238 105.95435
2376000000 -37.581718 82.430267 -1.0554259 179.84494 -1.0556741 179.84683 -34.221252 103.66456
2377000000 -37.232552 76.626297 -1.0575428 177.21591 -1.0572842 177.2021 -34.444641 102.43288
2378000000 -36.978142 71.727402 -1.0575986 174.54138 -1.0557392 174.56381 -34.461079 100.24802
2379000000 -36.721977 68.199661 -1.0565447 171.91397 -1.0568395 171.877 -34.371265 96.484123
2380000000 -36.501694 62.687088 -1.0555933 169.26067 -1.0576465 169.22682 -34.374863 96.475883
2381000000 -36.277985 59.528358 -1.0583992 166.6304 -1.0547361 166.61661 -34.451931 94.055962
2382000000 -36.237167 55.55471 -1.0562373 163.95575 -1.0586413 163.94159 -34.419849 91.776237
2383000000 -36.119976 47.552979 -1.0622514 161.32828 -1.0606441 161.27925 -34.486465 89.599854
2384000000 -35.894184 47.098919 -1.0585458 158.69141 -1.0571129 158.6479 -34.585766 88.702148
2385000000 -35.73608 41.325218 -1.0564975 156.01646 -1.055819 155.99603 -34.693802 85.546509
2386000000 -35.8283 38.70834 -1.0615077 153.36061 -1.0551583 153.35725 -34.92152 84.377045
2387000000 -35.55637 33.985016 -1.0614072 150.70633 -1.0558625 150.68709 -34.809006 80.899834
2388000000 -35.275017 28.972847 -1.0601442 148.03526 -1.0588527 148.05643 -35.194649 78.404144
2389000000 -35.162151 25.148285 -1.0584977 145.42319 -1.0583509 145.3896 -35.001457 78.069267
2390000000 -35.265556 21.788973 -1.0609975 142.75465 -1.0582476 142.77855 -35.368774 73.852402
2391000000 -35.152115 17.217072 -1.059262 140.09563 -1.0577961 140.10921 -35.345177 71.77459
2392000000 -35.054829 12.871959 -1.0591815 137.44911 -1.0557722 137.44348 -35.763721 69.599792
2393000000 -34.950623 9.5380116 -1.0598971 134.82013 -1.0527581 134.7802 -35.849819 66.99781
2394000000 -34.928139 5.0990977 -1.0607674 132.16289 -1.0616089 132.17459 -36.051476 65.475571
2395000000 -34.88118 1.5310861 -1.0662985 129.47823 -1.0618621 129.5195 -36.153522 64.246208
2396000000 -34.571514 -2.4955008 -1.0592736 126.88395 -1.0569488 126.83854 -36.472847 59.062252
2397000000 -34.62952 -6.0212255 -1.0637989 124.21653 -1.0588497 124.19597 -36.974781 55.624138
2398000000 -34.557629 -11.131817 -1.0613236 121.55737 -1.0577825 121.53364 -36.842327 56.153637
2399000000 -34.456669 -12.994804 -1.0601819 118.89314 -1.0601647 118.88827 -37.446255 54.070988
2400000000 -34.389267 -17.58539 -1.0631614 116.28101 -1.0597425 116.24257 -37.47934 51.142956
2401000000 -34.378014 -20.808239 -1.0640692 113.60607 -1.0609716 113.59507 -37.904652 50.417309
2402000000 -34.347271 -24.224596 -1.06101 110.96438 -1.0602123 110.94188 -38.080975 48.646862
2403000000 -34.391804 -26.953436 -1.0623745 108.3197 -1.0644624 108.3047 -38.187546 45.104973
2404000000 -34.050919 -32.249023 -1.0602013 105.66219 -1.0584348 105.68442 -38.504108 43.124352
2405000000 -34.313156 -34.957775 -1.0629485 103.04039 -1.0586363 103.03352 -38.649719 41.820442
2406000000 -34.331932 -37.784317 -1.0635014 100.38268 -1.0597757 100.34677 -39.277122 39.217655
2407000000 -34.219013 -41.23127 -1.0635625 97.73745 -1.05994 97.692253 -39.512421 38.531521
2408000000 -34.207264 -47.234001 -1.0619794 95.077286 -1.0587322 95.05069 -39.976368 38.1068
2409000000 -34.227512 -49.728886 -1.0602727 92.404778 -1.064557 92.374222 -40.477486 39.917534
2410000000 -34.366329 -52.452179 -1.0660262 89.781647 -1.060892 89.728615 -40.669601 37.351646
2411000000 -34.528709 -56.518711 -1.0653416 87.117073 -1.0608312 87.092819 -40.679935 36.827904
2412000000 -34.558128 -57.860741 -1.0637282 84.479889 -1.0567728 84.43042 -42.043076 32.455078
2413000000 -34.911636 -61.861271 -1.0614251 81.802849 -1.0606045 81.799706 -41.976318 38.503323
2414000000 -34.541363 -65.085228 -1.0649496 79.175529 -1.0599786 79.152184 -43.121887 36.185753
2415000000 -35.022717 -69.826859 -1.0635912 76.506775 -1.0615851 76.493156 -43.367336 39.747627
2416000000 -35.133438 -73.37619 -1.0653092 73.867332 -1.0634207 73.844803 -44.344627 42.590645
2417000000 -35.625156 -76.635719 -1.064011 71.205688 -1.060312 71.178329 -44.793377 43.76693
2418000000 -35.503365 -80.434212 -1.0630391 68.56916 -1.0608735 68.544281 -46.389481 45.901951
2419000000 -35.973152 -84.488899 -1.064212 65.874344 -1.0607799 65.910225 -45.442547 51.440361
2420000000 -36.030586 -88.470314 -1.0616426 63.272392 -1.0604521 63.249828 -46.813599 56.713463
2421000000 -36.326138 -92.30442 -1.0640697 60.601238 -1.0611567 60.616631 -46.971157 59.065407
2422000000 -36.711956 -94.021057 -1.0610037 57.932926 -1.0666128 57.95583 -46.499825 68.749191
2423000000 -37.301884 -100.50246 -1.0648004 55.30759 -1.0633506 55.284355 -46.696262 75.426712
2424000000 -37.359921 -103.16171 -1.0658406 52.665791 -1.0612793 52.649441 -46.571743 85.627518
2425000000 -38.283134 -108.72469 -1.0675306 50.000206 -1.0642818 49.999725 -45.048859 87.707352
2426000000 -38.325569 -111.97589 -1.068195 47.342693 -1.0660851 47.338154 -46.708042 86.690811
2427000000 -38.765911 -119.97469 -1.0666747 44.689888 -1.0630715 44.714111 -45.741421 95.512169
2428000000 -39.393261 -124.90725 -1.0633512 42.079964 -1.0647336 42.041451 -44.407024 96.618202
2429000000 -39.617126 -124.71367 -1.0664448 39.397354 -1.068679 39.410637 -43.931435 97.749908
2430000000 -40.627983 -131.42899 -1.0694498 36.742634 -1.0634332 36.726818 -43.145203 95.043549
2431000000 -41.297009 -140.62703 -1.0646784 34.074558 -1.0675068 34.088226 -43.009693 97.213051
2432000000 -41.06012 -147.00769 -1.0711131 31.465137 -1.064767 31.434294 -42.342857 100.64129
2433000000 -41.369217 -150.45317 -1.0711747 28.812304 -1.0618858 28.785904 -41.58754 100.18232
2434000000 -41.752075 -160.03142 -1.0702529 26.155273 -1.0641912 26.111607 -41.85252 99.942055
2435000000 -42.382664 -164.95641 -1.0683122 23.491102 -1.0660441 23.497105 -40.905399 101.29582
2436000000 -43.275448 -171.50171 -1.067294 20.849741 -1.0649556 20.821556 -41.09325 102.03998
2437000000 -42.771458 -179.72964 -1.0711346 18.203754 -1.0658121 18.169018 -40.140743 99.643471
2438000000 -43.034603 172.93259 -1.0674049 15.553005 -1.0665271 15.547823 -40.439442 100.01502
2439000000 -43.702671 164.78708 -1.0711018 12.887103 -1.0673192 12.878927 -40.159695 99.005371
2440000000 -44.135532 154.08208 -1.0697845 10.283759 -1.0651501 10.230609 -39.757366 96.69619
2441000000 -44.357563 143.26991 -1.0721745 7.5871034 -1.0675594 7.5983634 -39.524216 96.666832
2442000000 -43.560783 137.90056 -1.0747466 4.9332132 -1.0674399 4.948514 -39.904675 92.280411
2443000000 -43.889896 126.33943 -1.0693001 2.311435 -1.0734411 2.2869973 -39.195927 89.558807
2444000000 -43.604214 117.92232 -1.0709153 -0.34355941 -1.0680966 -0.36307865 -38.836838 89.71949
2445000000 -44.204025 115.76667 -1.0722153 -2.991842 -1.0693816 -3.020843 -38.72612 86.727295
2446000000 -44.321037 104.82745 -1.0736523 -5.6475039 -1.0701607 -5.6560946 -39.026234 83.097923
2447000000 -43.021469 93.02919 -1.075029 -8.307519 -1.0678242 -8.3255243 -39.243042 82.382591
2448000000 -43.227779 85.321968 -1.0751133 -10.960434 -1.070977 -10.980886 -38.380497 77.742645
2449000000 -42.782322 79.229683 -1.0736178 -13.630321 -1.0653697 -13.626892 -38.671894 79.255058
2450000000 -42.64497 74.187416 -1.0708898 -16.262938 -1.0732235 -16.271578 -38.583702 74.247963
2451000000 -42.434708 65.599472 -1.0730729 -18.874146 -1.0675247 -18.905025 -38.523605 74.108627
2452000000 -41.5047 60.365459 -1.0748172 -21.551497 -1.0712565 -21.581264 -38.593803 70.114349
2453000000 -41.420193 52.516224 -1.0719393 -24.192268 -1.07155 -24.217875 -38.120434 67.253654
2454000000 -40.874207 44.107178 -1.072955 -26.833248 -1.0708928 -26.882215 -38.130257 66.319756
2455000000 -40.498058 43.404938 -1.0728509 -29.508329 -1.0714384 -29.523998 -38.444206 60.925591
2456000000 -39.805458 39.469784 -1.0738661 -32.132366 -1.0723131 -32.175789 -38.393452 60.873844
2457000000 -39.923843 31.136909 -1.0738442 -34.811203 -1.0724907 -34.835678 -38.151222 57.182465
2458000000 -39.081635 27.118132 -1.0736924 -37.471497 -1.0665834 -37.467838 -37.892761 53.258904
2459000000 -38.913071 21.879648 -1.0732039 -40.114723 -1.0716832 -40.113571 -38.104378 50.626438
2460000000 -38.368843 17.677198 -1.073957 -42.750362 -1.0716683 -42.76376 -38.464733 50.46973
2461000000 -37.792885 14.064599 -1.0749322 -45.396904 -1.0689538 -45.424999 -38.295704 48.353249
2462000000 -38.043182 11.088763 -1.0769029 -48.078831 -1.0706388 -48.054878 -38.04356 45.79134
2463000000 -37.457047 7.6595621 -1.074596 -50.693317 -1.073171 -50.725098 -38.41819 43.819897
2464000000 -37.214016 2.6382139 -1.0772471 -53.331783 -1.0736649 -53.370377 -38.052052 41.777718
2465000000 -37.167458 -0.93391997 -1.0770382 -55.999214 -1.0710452 -56.008064 -38.218479 38.824623
2466000000 -37.238213 -3.8174965 -1.0751306 -58.65591 -1.0747224 -58.679722 -38.51054 33.991215
2467000000 -36.391949 -6.3871222 -1.077765 -61.273609 -1.0719479 -61.310741 -38.517574 34.9175
2468000000 -36.32793 -10.018097 -1.075991 -63.928242 -1.0768657 -63.964306 -38.783085 33.658508
2469000000 -36.244991 -12.438865 -1.0748779 -66.594131 -1.0791996 -66.617462 -39.245556 30.870819
2470000000 -36.291256 -17.264055 -1.0812145 -69.234077 -1.0727597 -69.272026 -39.391315 26.979574
2471000000 -36.084351 -19.181091 -1.0770235 -71.898537 -1.0721099 -71.938446 -39.710655 25.839785
2472000000 -36.169891 -22.867498 -1.0768491 -74.552353 -1.0727581 -74.54673 -39.661999 21.213511
2473000000 -36.275997 -26.308311 -1.0789801 -77.194756 -1.0742526 -77.234085 -39.644226 22.950766
2474000000 -36.168861 -29.845594 -1.0821732 -79.851974 -1.0744373 -79.862312 -39.91943 19.642633
2475000000 -35.776966 -31.940298 -1.0772674 -82.503136 -1.0719486 -82.522766 -40.66663 18.411299
2476000000 -36.203396 -35.22324 -1.0774339 -85.170013 -1.0715646 -85.173843 -40.897598 15.918135
2477000000 -36.059418 -38.071758 -1.0806135 -87.813286 -1.0722706 -87.802284 -41.457661 12.20258
2478000000 -35.993065 -39.487648 -1.0793701 -90.471062 -1.0736997 -90.45858 -41.935059 8.3709335
2479000000 -36.664997 -45.566235 -1.076264 -93.127441 -1.0738926 -93.103447 -42.327705 10.055669
2480000000 -36.853497 -45.514626 -1.0805701 -95.757034 -1.0760753 -95.747215 -42.886379 6.6071358
2481000000 -36.710762 -50.05864 -1.0762633 -98.381088 -1.0766033 -98.406181 -43.678909 3.4115765
2482000000 -36.875935 -52.183884 -1.0838985 -101.05162 -1.073577 -101.06046 -44.171455 5.2134051
2483000000 -37.200409 -55.018497 -1.0762994 -103.71189 -1.0754813 -103.72208 -45.583145 -1.0176599
2484000000 -36.720238 -59.063644 -1.079771 -106.31487 -1.0759406 -106.35946 -45.76902 -2.642158
2485000000 -37.516853 -59.926968 -1.0775583 -109.0234 -1.0771649 -109.02208 -47.051968 0.78093237
2486000000 -37.736351 -66.866714 -1.0808729 -111.64796 -1.0764922 -111.6815 -48.522575 -2.4527304
2487000000 -37.896664 -70.485825 -1.0809994 -114.2856 -1.0764278 -114.32237 -49.361328 -3.1006539
2488000000 -38.124966 -73.16198 -1.0809492 -116.939 -1.0756694 -116.96693 -50.707382 -21.215513
2489000000 -38.433426 -77.506096 -1.0790253 -119.59853 -1.0770929 -119.62218 -52.724731 -26.010456
2490000000 -38.923134 -78.756439 -1.0784578 -122.22144 -1.0801548 -122.28562 -55.362106 -8.7149744
2491000000 -38.743977 -79.71756 -1.0789994 -124.88802 -1.0755799 -124.90633 -57.051441 -47.164379
2492000000 -39.179375 -85.350845 -1.0786084 -127.5547 -1.0758641 -127.5559 -61.533192 -45.79213
2493000000 -39.730015 -89.914444 -1.078722 -130.19739 -1.0790087 -130.20314 -66.586113 -53.474827
2494000000 -39.750458 -94.304375 -1.0833796 -132.8441 -1.0748758 -132.88219 -60.577522 -170.47939
2495000000 -40.347843 -95.523262 -1.0808878 -135.50999 -1.0822337 -135.54556 -64.085083 170.98988
2496000000 -40.485424 -100.46362 -1.0843999 -138.15176 -1.0751604 -138.1748 -55.804256 158.19257
2497000000 -41.224174 -104.74686 -1.0785118 -140.80476 -1.0784904 -140.81073 -58.700924 155.55545
2498000000 -40.976944 -106.82581 -1.0788922 -143.4529 -1.0809455 -143.47296 -54.584698 146.72835
2499000000 -42.087914 -111.23714 -1.0823758 -146.10641 -1.0783453 -146.13515 -54.519772 149.50006
2500000000 -42.480194 -115.38359 -1.0828401 -148.7449 -1.080115 -148.7796 -52.278748 151.42961
2501000000 -42.788296 -122.50243 -1.0796602 -151.39453 -1.0778081 -151.43033 -50.200489 145.42183
2502000000 -43.496914 -123.24706 -1.0785285 -154.04605 -1.0792466 -154.07431 -49.277103 137.94836
2503000000 -44.397888 -126.66157 -1.0821403 -156.71223 -1.0806653 -156.69989 -49.749126 138.26195
2504000000 -44.943531 -129.64119 -1.080009 -159.3407 -1.0814101 -159.36374 -48.985081 139.36523
2505000000 -46.23418 -133.48993 -1.0847933 -161.99818 -1.0825515 -162.02853 -48.507484 128.42972
2506000000 -46.00156 -133.89073 -1.0828401 -164.62682 -1.0795891 -164.6841 -47.415764 130.53058
2507000000 -47.505669 -136.99124 -1.0821238 -167.29967 -1.0812165 -167.32887 -47.314983 126.40069
2508000000 -48.207748 -149.97556 -1.0869968 -169.94786 -1.0788391 -169.97133 -46.064217 115.77737
2509000000 -50.006416 -150.40099 -1.0794384 -172.62025 -1.0827302 -172.60715 -46.837414 120.62286
2510000000 -52.453632 -166.98845 -1.0825053 -175.27266 -1.0798925 -175.28215 -45.359764 111.42777
2511000000 -53.249081 -171.22052 -1.082675 -177.90868 -1.0808463 -177.91939 -45.124374 106.1954
2512000000 -57.016445 168.98778 -1.0856763 179.4147 -1.0801514 179.43941 -44.659817 99.214355
2513000000 -62.116917 159.399 -1.0860696 176.78525 -1.0820241 176.7547 -45.281425 99.182091
2514000000 -68.684769 160.04712 -1.0862917 174.14034 -1.0829879 174.1344 -44.761417 94.395157
2515000000 -59.395031 78.873703 -1.0873928 171.49323 -1.0847498 171.47946 -45.049244 99.238373
2516000000 -57.83469 41.75349 -1.0858512 168.83478 -1.0822984 168.82318 -43.629505 93.568245
2517000000 -55.790413 41.710712 -1.0825325 166.18922 -1.0821855 166.17328 -43.539867 81.581474
2518000000 -51.601315 20.075348 -1.082592 163.54379 -1.0830464 163.50888 -43.580074 85.499573
2519000000 -49.917587 36.778694 -1.0868531 160.88655 -1.0833211 160.875 -43.646072 79.801949
2520000000 -49.269684 22.148184 -1.0854713 158.23428 -1.0837852 158.22098 -43.160088 76.450615
2521000000 -46.708706 16.898581 -1.0839387 155.60765 -1.0852054 155.5829 -42.793819 77.246208
2522000000 -46.182888 13.643269 -1.0859778 152.96829 -1.0862345 152.90771 -42.910183 77.858093
2523000000 -45.889572 15.985914 -1.0877446 150.30856 -1.085121 150.29359 -43.106049 72.389412
2524000000 -44.354504 5.7472577 -1.0877994 147.6568 -1.0838603 147.60405 -42.352291 69.345047
2525000000 -44.08403 4.7631831 -1.0886399 144.98996 -1.0846052 145.00159 -42.259361 69.737297
2526000000 -42.726334 2.6225073 -1.0853556 142.31906 -1.0849385 142.30159 -43.192287 64.857048
2527000000 -42.655159 -1.8663962 -1.0891554 139.69022 -1.086643 139.68248 -41.969814 64.582077
2528000000 -42.244671 -6.1927819 -1.0911158 137.04506 -1.0830829 137.02147 -42.944466 60.876629
2529000000 -41.565174 -6.1784163 -1.084806 134.41386 -1.0869293 134.37344 -42.883541 56.97451
2530000000 -40.92947 -10.451256 -1.083546 131.76657 -1.0866786 131.72757 -42.499805 57.88884
2531000000 -41.291153 -11.611545 -1.0917575 129.07587 -1.0885072 129.0766 -42.999577 57.023209
2532000000 -40.512337 -14.920047 -1.0880196 126.41982 -1.0838941 126.4385 -43.173897 53.52998
2533000000 -40.585621 -16.850004 -1.0891924 123.81754 -1.0891222 123.76094 -43.702564 53.299667
2534000000 -40.236485 -24.843281 -1.0868654 121.10838 -1.0880185 121.13716 -44.627422 52.059708
2535000000 -40.305672 -23.823778 -1.0903372 118.53371 -1.0863754 118.47134 -44.458969 49.702408
2536000000 -40.05088 -27.59774 -1.089514 115.86258 -1.0906489 115.8287 -44.850967 48.669182
2537000000 -39.673725 -29.346134 -1.0919102 113.17599 -1.0832407 113.17266 -45.686729 40.556942
2538000000 -40.05444 -36.319786 -1.0908346 110.52216 -1.0871391 110.50697 -46.413383 50.538151
2539000000 -40.027756 -38.736595 -1.0916463 107.88001 -1.0887506 107.86421 -46.173714 45.176098
2540000000 -39.780865 -43.315781 -1.0887922 105.25504 -1.0870306 105.23024 -46.765427 46.226891
2541000000 -40.491802 -42.635975 -1.0925976 102.59551 -1.0892901 102.57504 -48.230141 41.174862
2542000000 -39.860016 -46.885136 -1.0888894 99.935898 -1.085014 99.94725 -48.815495 49.720493
2543000000 -40.423252 -54.044662 -1.0913627 97.294914 -1.0882357 97.280014 -49.502186 46.54681
2544000000 -39.868828 -54.918655 -1.0873947 94.652275 -1.0903012 94.637115 -50.909107 57.903099
2545000000 -39.610725 -60.763653 -1.0903687 91.974152 -1.0879291 91.962479 -53.630196 43.988697
2546000000 -40.227947 -67.637383 -1.0903814 89.34449 -1.0899777 89.308205 -54.099464 62.32642
2547000000 -40.650719 -69.306732 -1.0908666 86.698441 -1.0899359 86.660179 -58.021183 58.547035
2548000000 -39.825611 -70.790848 -1.0950722 84.023964 -1.0864701 84.051888 -58.63406 102.17437
2549000000 -40.545063 -74.017174 -1.0922714 81.39856 -1.0909148 81.362579 -61.566204 84.494698
2550000000 -40.247864 -80.515282 -1.0907245 78.712517 -1.0923244 78.721619 -57.942444 93.303322
2551000000 -40.353317 -87.368889 -1.0924129 76.086685 -1.0914392 76.075768 -57.145332 133.7738
2552000000 -40.637825 -91.319557 -1.0917704 73.438393 -1.0877466 73.441162 -56.698856 165.25102
2553000000 -40.683659 -93.74131 -1.0921656 70.761482 -1.0876359 70.750893 -54.234364 158.74788
2554000000 -40.204548 -100.12685 -1.0916263 68.144264 -1.0921855 68.115219 -50.708153 141.22014
2555000000 -40.899754 -99.556229 -1.0942112 65.460571 -1.090413 65.463493 -50.677284 152.49884
2556000000 -40.709835 -105.44273 -1.0945543 62.825344 -1.0932739 62.807335 -50.08659 154.06674
2557000000 -41.165443 -108.46752 -1.0939648 60.180614 -1.0894545 60.171707 -48.249397 155.89288
2558000000 -40.94146 -116.34655 -1.0928373 57.553749 -1.0887413 57.526989 -48.453724 154.19878
2559000000 -41.00531 -116.9322 -1.091908 54.899414 -1.0913943 54.847801 -46.916172 147.35718
2560000000 -40.736401 -123.88383 -1.0963278 52.227089 -1.0905521 52.250263 -47.011639 144.0275
2561000000 -41.633625 -126.97402 -1.0955875 49.58477 -1.0945439 49.55674 -45.443371 142.47635
2562000000 -41.514595 -131.50098 -1.0957521 46.949425 -1.0897722 46.924278 -45.908459 142.2077
2563000000 -41.644375 -134.66039 -1.0964131 44.295322 -1.0912689 44.245991 -43.875195 138.26924
2564000000 -42.091133 -139.27603 -1.1002313 41.641605 -1.0927634 41.605705 -44.34481 136.18364
2565000000 -42.283237 -143.01604 -1.0983394 38.997269 -1.0945723 38.96434 -44.628403 130.38855
2566000000 -42.386322 -151.29898 -1.0951558 36.36116 -1.0931816 36.296402 -42.852711 126.53831
2567000000 -43.167156 -153.4894 -1.0960866 33.677956 -1.0943764 33.676205 -43.094437 126.33707
2568000000 -42.771919 -161.61131 -1.0935169 31.035011 -1.0933528 31.023928 -42.446529 123.16558
2569000000 -43.159374 -166.12996 -1.0971962 28.382793 -1.0932115 28.358074 -42.133003 117.56101
2570000000 -43.500526 -171.88631 -1.0941093 25.697392 -1.0977452 25.741123 -41.871861 116.60052
2571000000 -44.67067 -178.48404 -1.0950582 23.054071 -1.0969559 23.074524 -41.275417 111.29699
2572000000 -43.312534 174.41187 -1.0973319 20.416107 -1.0937513 20.445984 -40.64003 110.87841
2573000000 -44.404579 166.28354 -1.0974408 17.779747 -1.0947162 17.76507 -40.252377 105.48596
2574000000 -44.134403 153.36066 -1.096018 15.098695 -1.0955052 15.115815 -40.075069 103.08932
2575000000 -44.009975 142.73636 -1.0960133 12.444457 -1.0957625 12.451823 -39.546467 99.617737
2576000000 -44.023926 142.73877 -1.0978155 9.841835 -1.0971036 9.8144073 -38.89608 98.777634
2577000000 -44.733135 135.75813 -1.1006268 7.1691303 -1.0984972 7.1735735 -39.189072 95.743889
2578000000 -44.317711 123.13763 -1.0976424 4.5100126 -1.0936954 4.5226655 -38.634544 93.388794
2579000000 -44.167767 113.61739 -1.0965891 1.8422647 -1.0994383 1.8726522 -38.526154 88.328781
2580000000 -43.193966 109.34803 -1.101385 -0.74917758 -1.0982128 -0.77485389 -38.347076 89.649483
2581000000 -42.910248 105.12453 -1.0988818 -3.4319277 -1.1019211 -3.4326689 -37.824108 86.932869
2582000000 -42.850559 99.154243 -1.1007239 -6.0699854 -1.0986558 -6.0884113 -38.073738 82.922073
2583000000 -42.594944 91.703217 -1.1019124 -8.7317848 -1.0977701 -8.7552395 -37.589947 78.681923
2584000000 -42.04237 83.505882 -1.1021863 -11.385513 -1.1023735 -11.400702 -37.233589 78.126129
2585000000 -41.783241 76.783073 -1.1002073 -14.024108 -1.1015714 -14.021609 -37.39185 76.96843
2586000000 -41.252792 70.791252 -1.1032031 -16.669994 -1.1017714 -16.688578 -37.132404 73.300087
2587000000 -40.729225 66.628281 -1.0984977 -19.321774 -1.103403 -19.362494 -37.158527 71.826256
2588000000 -40.196411 61.614857 -1.1016015 -21.97002 -1.1012689 -22.0007 -37.100063 66.746361
2589000000 -40.454468 55.874092 -1.1024516 -24.618872 -1.1008496 -24.642559 -37.012848 68.053413
2590000000 -39.729828 52.680454 -1.1026105 -27.280907 -1.0996563 -27.278284 -36.989033 65.909233
2591000000 -39.634132 47.100662 -1.0955975 -29.928524 -1.102487 -29.924923 -37.168262 63.458088
2592000000 -39.519035 46.073513 -1.1012813 -32.570583 -1.1016389 -32.579987 -36.777435 57.362553
2593000000 -39.307934 41.448105 -1.1009049 -35.235302 -1.099627 -35.223244 -37.268177 58.549572
2594000000 -38.827484 38.101116 -1.1008836 -37.842823 -1.099709 -37.889862 -36.997044 54.584991
2595000000 -39.064228 32.83287 -1.1064417 -40.513687 -1.1015818 -40.523438 -37.056332 51.527344
2596000000 -38.966782 34.204571 -1.1053207 -43.157085 -1.1011155 -43.192383 -37.488964 51.00724
2597000000 -38.647617 29.963825 -1.1040061 -45.804447 -1.1011288 -45.812046 -37.483715 47.694096
2598000000 -38.493095 25.99144 -1.1057742 -48.452881 -1.0984138 -48.505951 -37.795879 43.439949
2599000000 -38.594269 20.82439 -1.1058513 -51.105816 -1.1047038 -51.155022 -38.02026 41.748596
2600000000 -38.460243 19.031151 -1.1048226 -53.762299 -1.0989861 -53.785191 -38.45472 38.232018
2601000000 -38.25069 13.337881 -1.1062253 -56.413715 -1.1010311 -56.426861 -38.210155 36.199203
2602000000 -38.37735 8.1980972 -1.1066123 -59.097893 -1.1035521 -59.070522 -38.518959 32.211403
2603000000 -38.195034 9.724185 -1.1048453 -61.716881 -1.1059521 -61.764507 -39.066422 29.698954
2604000000 -38.098488 3.2070224 -1.1070603 -64.37101 -1.1009324 -64.392754 -39.404842 26.235361
2605000000 -38.22715 0.25740948 -1.1057591 -67.015266 -1.099629 -67.038864 -40.122711 20.645327
2606000000 -38.607277 -1.0995435 -1.105324 -69.681236 -1.1025053 -69.663551 -40.099663 19.18364
2607000000 -38.684875 -6.1483054 -1.1055504 -72.285309 -1.1024677 -72.312729 -40.69733 16.266516
2608000000 -38.591988 -5.2451177 -1.1020018 -74.984047 -1.1047251 -74.981651 -41.286575 9.9657192
2609000000 -38.780251 -10.719541 -1.1071084 -77.618683 -1.1041423 -77.631042 -41.504093 3.7136235
2610000000 -38.747814 -15.79213 -1.1077291 -80.279015 -1.1057625 -80.259789 -41.937923 6.3154697
2611000000 -38.690025 -18.419357 -1.1054837 -82.928543 -1.1054282 -82.942032 -42.670971 -4.6059322
2612000000 -38.740879 -18.232563 -1.1104703 -85.558861 -1.1014197 -85.582802 -43.173588 -15.785208
2613000000 -39.210697 -24.708879 -1.1069638 -88.200302 -1.1055394 -88.240707 -42.428455 -18.331455
2614000000 -39.524864 -28.607075 -1.1074444 -90.880547 -1.1041483 -90.872688 -43.119801 -22.906485
2615000000 -39.769108 -30.61981 -1.1081834 -93.504639 -1.1015074 -93.541328 -43.652035 -30.296957
2616000000 -39.333096 -30.349386 -1.1071475 -96.168892 -1.1071908 -96.186249 -44.372528 -35.217316
2617000000 -39.835838 -34.375626 -1.106614 -98.821114 -1.107555 -98.836784 -44.236374 -46.291271
2618000000 -40.535431 -40.157654 -1.1091156 -101.48323 -1.1055124 -101.47201 -45.100304 -46.000774
2619000000 -39.925613 -43.094807 -1.1100123 -104.12835 -1.1027282 -104.10605 -45.027519 -51.086006
2620000000 -40.238586 -44.919094 -1.1079472 -106.75829 -1.1030942 -106.79691 -44.884968 -67.701454
2621000000 -40.142521 -46.06694 -1.1057751 -109.42913 -1.1091009 -109.44713 -45.78352 -75.352379
2622000000 -40.842949 -45.410011 -1.1095043 -112.07304 -1.1045779 -112.09447 -45.931091 -81.604591
2623000000 -41.253849 -51.401997 -1.1091404 -114.72102 -1.1030692 -114.74928 -46.628338 -85.734879
2624000000 -41.517944 -55.684544 -1.1081904 -117.36455 -1.1059505 -117.37669 -45.5686 -89.856514
2625000000 -41.675552 -59.545673 -1.1058422 -120.01767 -1.1046063 -120.01285 -45.5518 -108.09591
2626000000 -42.595642 -60.411289 -1.1077046 -122.67259 -1.103657 -122.68136 -45.788818 -113.21951
2627000000 -43.511082 -58.789639 -1.1126353 -125.32828 -1.1053841 -125.34814 -45.746372 -123.6682
2628000000 -45.084011 -60.730984 -1.1098171 -127.98149 -1.1057842 -127.99926 -45.376728 -133.47031
2629000000 -44.795128 -59.544716 -1.1081576 -130.63638 -1.107232 -130.64931 -45.370533 -140.87257
2630000000 -46.188728 -59.868656 -1.1088626 -133.26074 -1.103922 -133.3148 -44.808617 -146.78929
2631000000 -46.019997 -61.911568 -1.1109504 -135.90411 -1.1091728 -135.92517 -44.716999 -150.90025
2632000000 -46.863308 -55.824657 -1.1122082 -138.56578 -1.1041049 -138.59555 -43.884594 -162.58221
2633000000 -48.888233 -53.109398 -1.1086495 -141.22055 -1.1056303 -141.25221 -43.726048 -166.73842
2634000000 -48.607471 -42.660873 -1.1119654 -143.85059 -1.1098672 -143.90059 -42.997452 -172.82024
2635000000 -49.573284 -34.617458 -1.1079111 -146.52838 -1.107379 -146.54608 -42.680416 174.44145
2636000000 -51.090794 -31.504114 -1.1140794 -149.17755 -1.1112138 -149.18791 -42.439068 172.27138
2637000000 -52.002136 -11.59649 -1.1106054 -151.81882 -1.1122701 -151.84555 -41.229614 169.98001
2638000000 -50.905857 -7.1675844 -1.1130162 -154.49477 -1.1085409 -154.47656 -41.107563 161.19017
2639000000 -48.883106 16.259016 -1.1117641 -157.14293 -1.1083769 -157.13213 -40.529999 157.17224
2640000000 -48.020149 21.669075 -1.113536 -159.78938 -1.1098512 -159.82433 -39.961594 151.00565
2641000000 -48.947418 22.169401 -1.1117852 -162.44383 -1.110038 -162.43224 -39.174004 148.11713
2642000000 -46.929577 19.159594 -1.1167864 -165.08179 -1.1105689 -165.10626 -39.144367 146.77983
2643000000 -45.52985 30.757395 -1.1143687 -167.73436 -1.111834 -167.76065 -39.050003 142.91649
2644000000 -44.188183 29.891371 -1.1143072 -170.37329 -1.1128875 -170.40016 -38.328465 139.84802
2645000000 -44.117908 33.422958 -1.11107 -173.02316 -1.1162779 -173.02577 -37.452637 137.39119
2646000000 -42.564732 30.126045 -1.1140864 -175.67372 -1.1120934 -175.67889 -37.465488 133.11139
2647000000 -41.968338 28.396692 -1.1174165 -178.32849 -1.1121794 -178.33772 -36.708515 132.92978
2648000000 -41.39006 27.724941 -1.1163522 179.01933 -1.1127664 179.00107 -36.778824 126.72374
2649000000 -41.139408 26.134716 -1.1150544 176.35463 -1.1090668 176.34496 -36.774612 125.92426
2650000000 -40.091827 25.824186 -1.1176442 173.72441 -1.1121306 173.71062 -36.643425 122.11779
2651000000 -39.802105 24.243523 -1.1108611 171.06267 -1.1111429 171.06844 -36.411377 118.23598
2652000000 -38.86668 25.138384 -1.111528 168.41107 -1.1133728 168.41232 -35.99773 117.03522
2653000000 -38.834461 18.908546 -1.1170616 165.77147 -1.1099368 165.75084 -35.595657 114.48805
2654000000 -38.749382 16.520918 -1.1150242 163.09628 -1.1117872 163.11145 -35.723495 113.88715
2655000000 -37.952866 16.833858 -1.1105137 160.47072 -1.1153224 160.43221 -35.203632 111.21087
2656000000 -37.687862 10.820621 -1.1128583 157.84303 -1.1147307 157.79578 -35.416931 108.71583
2657000000 -37.41761 9.0743589 -1.1174319 155.17043 -1.1149596 155.16562 -35.450466 106.12022
2658000000 -37.201309 8.198988 -1.1205052 152.54605 -1.1122942 152.49767 -35.255196 103.78925
2659000000 -37.022446 4.2249031 -1.1170003 149.87321 -1.1135099 149.83923 -35.544987 99.995224
2660000000 -36.781376 2.7128243 -1.1196409 147.21982 -1.1142907 147.21877 -35.270691 98.792389
2661000000 -36.343903 -1.6036167 -1.1171764 144.58804 -1.1135045 144.53468 -35.422436 97.774681
2662000000 -36.458687 -2.0787783 -1.1160088 141.93745 -1.1174041 141.9283 -35.719532 95.299156
2663000000 -36.113632 -5.0834775 -1.1188052 139.27719 -1.1187556 139.2532 -35.541885 92.322533
2664000000 -35.947319 -10.894212 -1.1219954 136.63571 -1.1162196 136.5901 -35.730701 89.545692
2665000000 -35.834381 -12.836036 -1.1171968 133.98506 -1.1175032 133.95728 -35.506466 85.540726
2666000000 -35.634674 -15.576877 -1.1186974 131.31512 -1.115713 131.29781 -35.633842 85.387794
2667000000 -35.364132 -17.83709 -1.1156667 128.67578 -1.115474 128.66914 -35.785419 84.013412
2668000000 -35.398968 -21.619572 -1.1180959 126.02079 -1.1189532 126.0205 -35.805901 79.346886
2669000000 -35.353855 -24.506813 -1.1196506 123.39498 -1.1184837 123.3378 -36.200279 78.17202
2670000000 -34.945839 -26.620888 -1.1213614 120.72897 -1.1156828 120.72118 -36.398407 77.012047
2671000000 -34.916595 -30.950258 -1.1171048 118.09045 -1.1144814 118.0671 -36.561428 73.802162
2672000000 -34.650261 -33.033112 -1.1179204 115.41935 -1.1134109 115.41971 -36.717323 71.906029
2673000000 -34.820999 -38.030487 -1.1199729 112.77552 -1.1175709 112.72781 -36.837563 70.378601
2674000000 -34.859741 -39.291836 -1.118768 110.14964 -1.1190856 110.0966 -36.793381 68.477631
2675000000 -34.830078 -42.727962 -1.1232717 107.47508 -1.1185142 107.4657 -37.288868 65.131058
2676000000 -34.551922 -44.526714 -1.1218681 104.8291 -1.1157112 104.83604 -37.713451 62.577881
2677000000 -34.483395 -49.449974 -1.1202878 102.17488 -1.1184566 102.1694 -37.409054 59.534428
2678000000 -34.52071 -50.146484 -1.1195725 99.533958 -1.1176103 99.510689 -38.142342 58.348148
2679000000 -34.383881 -53.890774 -1.1221279 96.879753 -1.1156299 96.828438 -38.012905 58.664742
2680000000 -34.733429 -58.518494 -1.1205662 94.219994 -1.1131935 94.212051 -38.279205 52.794376
2681000000 -34.583065 -59.198479 -1.1201029 91.579185 -1.1186273 91.557907 -38.853729 53.377125
2682000000 -34.73576 -61.071995 -1.1214907 88.933212 -1.1187161 88.902565 -39.266518 52.378948
2683000000 -34.616928 -64.41671 -1.1231701 86.281464 -1.1164383 86.247589 -39.463924 51.232063
2684000000 -34.868958 -67.357262 -1.1202291 83.618752 -1.1180792 83.620453 -39.747486 46.913704
2685000000 -34.869812 -71.596695 -1.1160808 80.961952 -1.1170244 80.956474 -40.519554 47.136009
2686000000 -35.005302 -74.299545 -1.1255924 78.364182 -1.1238692 78.311188 -39.609097 46.769539
2687000000 -35.203125 -76.237373 -1.1240271 75.666443 -1.1205337 75.661995 -40.41563 44.177879
2688000000 -35.3158 -77.259567 -1.1241385 73.058067 -1.119987 72.995522 -40.831245 47.240936
2689000000 -35.465961 -79.716454 -1.1199846 70.369804 -1.1221765 70.354935 -41.324245 47.963097
2690000000 -35.623619 -86.251602 -1.1220931 67.710861 -1.1209989 67.693298 -41.488575 47.453972
2691000000 -35.843002 -87.183754 -1.1253089 65.085442 -1.1185975 65.058388 -41.840427 49.161278
2692000000 -36.272106 -91.294617 -1.1226102 62.429977 -1.1209606 62.412014 -42.625069 49.852535
2693000000 -36.779457 -93.432777 -1.1293836 59.783459 -1.1219627 59.758568 -42.174782 48.896446
2694000000 -36.809578 -97.494606 -1.1209556 57.122261 -1.1204852 57.103035 -43.529255 52.437904
2695000000 -36.932087 -101.0835 -1.1208138 54.487644 -1.1204236 54.454071 -43.40345 53.976673
2696000000 -37.464382 -105.04683 -1.1259311 51.834469 -1.1206145 51.804604 -43.508255 61.51989
2697000000 -38.146496 -106.9528 -1.1240247 49.14064 -1.1211721 49.158016 -43.359367 58.369621
2698000000 -38.353348 -111.23195 -1.1232932 46.531818 -1.1225995 46.513157 -43.612774 62.767704
2699000000 -39.286575 -114.13417 -1.1260227 43.870205 -1.1239768 43.850735 -43.781826 67.062523
2700000000 -39.151276 -119.89859 -1.1255997 41.248085 -1.1213497 41.210461 -43.890335 77.319717
2701000000 -39.340054 -125.78157 -1.1270589 38.558907 -1.1230102 38.568127 -43.927773 80.007126
2702000000 -40.81765 -128.40298 -1.1226116 35.917465 -1.1213433 35.904324 -43.476097 79.37825
2703000000 -40.612865 -137.86726 -1.1271249 33.286247 -1.1262079 33.259975 -43.216145 87.242226
2704000000 -41.063118 -138.8754 -1.126989 30.628256 -1.1241086 30.597708 -43.218643 84.165428
2705000000 -41.83382 -147.78755 -1.1257926 27.974453 -1.1237317 27.967695 -42.170086 87.628716
2706000000 -41.936787 -150.76527 -1.126785 25.32922 -1.1260502 25.317505 -42.115486 91.552315
2707000000 -43.366676 -158.32303 -1.124469 22.652439 -1.1250869 22.663029 -41.731884 94.715965
2708000000 -43.709717 -167.09343 -1.1297989 20.026438 -1.1242247 20.004034 -41.339149 91.583893
2709000000 -45.105522 -174.41524 -1.1237055 17.360807 -1.1243128 17.361481 -41.145447 93.209595
2710000000 -44.580383 177.92146 -1.1255162 14.710636 -1.1224798 14.725579 -40.691696 94.869385
2711000000 -45.713215 170.04947 -1.1277508 12.068789 -1.1232754 12.057933 -40.376301 92.006073
2712000000 -45.869545 159.01337 -1.1255528 9.4147177 -1.1267233 9.4175329 -39.89325 93.998192
2713000000 -46.204811 147.77571 -1.1251559 6.7665334 -1.1273353 6.73769 -39.36187 91.122818
2714000000 -47.04166 142.75241 -1.1290481 4.1123199 -1.1277877 4.0818419 -39.869347 94.460243
2715000000 -46.457947 133.23029 -1.1276951 1.481348 -1.1272116 1.4633539 -39.514137 92.871529
2716000000 -46.05518 123.15224 -1.1262096 -1.1865431 -1.1251744 -1.1948315 -39.018616 93.300323
2717000000 -45.417015 113.07366 -1.1302216 -3.8345344 -1.1242615 -3.8312225 -38.655357 88.590408
2718000000 -46.423061 99.51973 -1.1281469 -6.4702044 -1.1262314 -6.5012665 -38.553471 87.355911
2719000000 -44.681095 90.760704 -1.1269256 -9.1303358 -1.1267856 -9.153471 -38.292534 83.518509
2720000000 -44.457699 80.827492 -1.1271951 -11.800226 -1.1276209 -11.819613 -38.096817 85.163895
2721000000 -44.734909 72.83667 -1.1250618 -14.424636 -1.1274692 -14.459326 -38.018898 84.041527
2722000000 -44.365845 68.142494 -1.1278102 -17.058012 -1.1302774 -17.068396 -37.945435 80.870224
2723000000 -43.780331 57.096199 -1.130051 -19.733816 -1.1272044 -19.743267 -37.783653 80.461411
2724000000 -44.460224 58.426792 -1.1299621 -22.392103 -1.129124 -22.410063 -37.726425 77.817688
2725000000 -42.770111 50.237427 -1.12754 -25.028517 -1.1299987 -25.03722 -37.291134 76.101418
2726000000 -42.086143 41.73914 -1.1322933 -27.670242 -1.1260667 -27.701693 -37.736046 73.790085
2727000000 -41.716217 33.209164 -1.1319565 -30.331085 -1.1303704 -30.369457 -37.683884 69.859253
2728000000 -41.335831 26.575775 -1.1343782 -32.980484 -1.128124 -33.013557 -37.851437 69.402428
2729000000 -40.98819 22.332199 -1.1350229 -35.603756 -1.1277992 -35.655125 -37.554962 64.353867
2730000000 -40.577103 18.942654 -1.1307845 -38.246277 -1.1300399 -38.309246 -37.52914 64.468666
2731000000 -40.516224 15.122175 -1.1318436 -40.921581 -1.1309283 -40.977901 -37.502338 62.645287
2732000000 -39.274403 13.928007 -1.1299335 -43.583782 -1.1276441 -43.59264 -37.613247 61.472557
2733000000 -39.695553 6.562109 -1.1306001 -46.221951 -1.1318458 -46.279724 -37.523411 58.333626
2734000000 -39.213631 3.0378959 -1.132758 -48.895603 -1.1329021 -48.885971 -37.531319 57.271099
2735000000 -38.724621 -3.8672507 -1.1303217 -51.542351 -1.1325262 -51.551704 -37.533894 54.618111
2736000000 -38.368134 -2.4139681 -1.133126 -54.155746 -1.1324822 -54.17379 -37.357719 53.217663
2737000000 -38.077076 -7.2925673 -1.1324627 -56.80246 -1.1303452 -56.847645 -37.335438 50.085598
2738000000 -38.026779 -13.923483 -1.1362081 -59.485676 -1.1322037 -59.517204 -37.620644 47.771534
2739000000 -37.611168 -16.545635 -1.1321893 -62.114361 -1.1337833 -62.154667 -37.696339 45.16177
2740000000 -37.407524 -18.473173 -1.1319816 -64.768661 -1.1299059 -64.784927 -37.692753 44.26569
2741000000 -37.355286 -21.863337 -1.1348757 -67.447731 -1.1278992 -67.448921 -38.060318 42.944172
2742000000 -37.165634 -25.578535 -1.1359563 -70.074677 -1.134114 -70.10807 -37.866982 42.218628
2743000000 -36.811611 -29.054062 -1.1362145 -72.699387 -1.1331162 -72.764389 -38.149616 39.550251
2744000000 -36.883793 -31.374537 -1.130757 -75.380173 -1.1332792 -75.383186 -38.685352 38.773102
2745000000 -36.871197 -33.474899 -1.1341503 -78.003014 -1.1346209 -78.05957 -39.055862 35.148518
2746000000 -36.746731 -39.099659 -1.1346734 -80.684776 -1.1285259 -80.698738 -39.120007 37.714539
2747000000 -36.652859 -41.997097 -1.1361724 -83.305595 -1.1294316 -83.359383 -39.513363 34.03194
2748000000 -36.65361 -46.346478 -1.1342219 -85.97393 -1.1324648 -85.984085 -39.141899 33.092945
2749000000 -36.867035 -46.812195 -1.1369345 -88.628288 -1.1313044 -88.649834 -40.34338 32.126293
2750000000 -37.269135 -50.728897 -1.1363695 -91.281799 -1.1301534 -91.296684 -40.502186 31.588484
2751000000 -36.790016 -55.016716 -1.1332207 -93.93856 -1.1333171 -93.940079 -40.671291 33.57906
2752000000 -37.237888 -56.396732 -1.1319 -96.595612 -1.1328794 -96.572937 -41.601536 31.644947
2753000000 -37.179516 -61.131859 -1.1375369 -99.246765 -1.1318979 -99.247635 -41.568935 32.328259
2754000000 -37.205841 -64.607582 -1.1373836 -101.86345 -1.1367438 -101.88969 -42.377789 27.911974
2755000000 -37.381363 -66.853317 -1.1398817 -104.53871 -1.1346475 -104.57298 -43.064743 33.700108
2756000000 -37.831268 -72.87175 -1.1386245 -107.19342 -1.1320239 -107.18375 -43.127792 32.882957
2757000000 -38.352074 -74.038811 -1.136734 -109.81865 -1.1324801 -109.8288 -44.211864 34.914906
2758000000 -38.55497 -80.193382 -1.1356997 -112.4834 -1.1386316 -112.50157 -44.436226 38.294643
2759000000 -38.762165 -81.091591 -1.1407441 -115.1359 -1.1299564 -115.14639 -45.511639 44.591457
2760000000 -39.164955 -88.572037 -1.1356775 -117.78253 -1.1348888 -117.78992 -46.609093 49.757557
2761000000 -39.142429 -92.810318 -1.1354002 -120.41589 -1.135386 -120.44961 -46.780155 55.308952
2762000000 -40.432182 -94.574097 -1.1400874 -123.08497 -1.1362656 -123.10966 -46.847019 61.773193
2763000000 -39.916183 -103.37821 -1.1399851 -125.72859 -1.1326015 -125.73583 -46.840324 68.918518
2764000000 -40.319611 -108.55785 -1.1362252 -128.39888 -1.139641 -128.38657 -47.257092 78.898376
2765000000 -40.803085 -111.13455 -1.1387106 -131.04953 -1.1356658 -131.06929 -47.099854 86.64901
2766000000 -41.470745 -117.38893 -1.1388324 -133.68639 -1.1350014 -133.70764 -46.511887 96.097893
2767000000 -41.899612 -120.5239 -1.1363846 -136.3149 -1.1368808 -136.35995 -45.970844 103.0202
2768000000 -42.011463 -128.51384 -1.1384532 -139.01375 -1.1385475 -139.01123 -45.233494 104.19675
2769000000 -42.764153 -133.19264 -1.1392585 -141.63515 -1.1364331 -141.69408 -44.307198 107.41355
2770000000 -44.317844 -139.59203 -1.1396942 -144.31274 -1.1391228 -144.29993 -43.62254 99.400475
2771000000 -43.895039 -148.0287 -1.1420521 -146.95299 -1.1341203 -146.95985 -42.581253 107.90791
2772000000 -44.459694 -154.35506 -1.138388 -149.60532 -1.1384614 -149.60474 -42.341599 112.35951
2773000000 -44.639648 -170.4782 -1.1384099 -152.22728 -1.1361271 -152.26642 -41.524578 106.03692
2774000000 -44.371838 -175.84515 -1.1405933 -154.88493 -1.1382601 -154.91875 -40.969791 109.40653
2775000000 -44.703674 176.92694 -1.1395055 -157.51646 -1.1366311 -157.54771 -40.170181 110.25844
2776000000 -45.905411 167.48755 -1.1398948 -160.20074 -1.1390165 -160.23137 -40.436359 106.28325
2777000000 -45.639641 163.63348 -1.1386229 -162.82932 -1.1388786 -162.86072 -39.752007 106.66557
2778000000 -45.591377 148.76347 -1.1403781 -165.48781 -1.140676 -165.50212 -38.992264 106.07423
2779000000 -45.132816 136.99706 -1.1420311 -168.15283 -1.1384782 -168.17508 -39.103504 105.76561
2780000000 -44.785061 131.87231 -1.1420113 -170.79462 -1.1392783 -170.81743 -38.370171 101.44569
2781000000 -46.228199 117.71297 -1.1394335 -173.43895 -1.1412954 -173.48479 -38.344734 99.011414
2782000000 -44.802792 117.29659 -1.1446624 -176.08046 -1.1400213 -176.09882 -38.102886 98.584564
2783000000 -44.737812 99.882759 -1.1446691 -178.74194 -1.1412103 -178.7682 -37.892399 95.809685
2784000000 -43.735268 96.414124 -1.1409901 178.61923 -1.1410383 178.57875 -37.546703 93.781105
2785000000 -43.423443 90.594002 -1.1437359 175.95084 -1.140094 175.93117 -37.289532 93.912346
2786000000 -42.824627 81.705544 -1.1420527 173.30606 -1.1363866 173.29579 -36.936081 89.915016
2787000000 -42.741295 74.13134 -1.143558 170.66165 -1.142478 170.62834 -36.556114 87.742691
2788000000 -41.684753 69.492111 -1.1426049 168.0137 -1.1413426 167.97842 -36.174553 86.374229
2789000000 -41.543327 65.216957 -1.1463183 165.36647 -1.140011 165.34143 -36.247417 83.088257
2790000000 -40.383533 58.729431 -1.1406507 162.70523 -1.144156 162.68283 -35.737373 79.509285
2791000000 -40.098999 55.991764 -1.1467296 160.07643 -1.1400934 160.02716 -35.796886 77.718803
2792000000 -39.443298 46.470074 -1.1449838 157.41821 -1.1406024 157.37286 -35.455639 76.904938
2793000000 -39.078712 43.890694 -1.1457225 154.75964 -1.1469065 154.7491 -35.173923 74.672058
2794000000 -38.599854 42.099369 -1.1451179 152.12531 -1.144876 152.08858 -35.23671 73.554527
2795000000 -38.433823 34.161999 -1.1462023 149.49817 -1.1483637 149.41948 -35.370949 70.587822
2796000000 -37.869061 32.642033 -1.1447952 146.82112 -1.1402633 146.78134 -34.897308 64.7444
2797000000 -37.223312 28.749493 -1.1458262 144.17664 -1.143195 144.16005 -34.63876 64.368645
2798000000 -36.75555 24.61046 -1.1473967 141.49673 -1.1421648 141.50299 -34.561539 62.806576
2799000000 -36.722054 19.448914 -1.1455506 138.88403 -1.1437818 138.84134 -34.362316 61.412491
2800000000 -36.176586 17.937197 -1.1435992 136.19801 -1.1428508 136.17772 -34.312569 59.300262
2801000000 -36.103867 14.452474 -1.14677 133.52335 -1.1450225 133.56146 -34.387745 56.498558
2802000000 -35.680706 12.05722 -1.1462355 130.90125 -1.1467707 130.90474 -34.37624 54.438816
2803000000 -35.42197 9.7151747 -1.1497056 128.26984 -1.1405575 128.26311 -34.063068 50.982922
2804000000 -35.480003 5.9302559 -1.1466328 125.60554 -1.1478428 125.61199 -34.179798 48.743351
2805000000 -34.99741 0.88901019 -1.1472945 122.94943 -1.1475232 122.94691 -34.140671 50.635281
2806000000 -34.785023 -0.75752515 -1.1484723 120.33346 -1.1441264 120.29145 -34.431454 46.777294
2807000000 -34.963066 -4.7799544 -1.1500406 117.66035 -1.1458755 117.6443 -34.2033 44.171268
2808000000 -34.82935 -6.4463968 -1.1474291 115.00256 -1.149 114.9995 -34.35302 41.55542
2809000000 -34.76804 -9.3603296 -1.1485569 112.35057 -1.146771 112.36031 -34.320538 40.220348
2810000000 -34.705162 -14.109504 -1.1489151 109.71695 -1.1444128 109.70831 -34.42907 39.714432
2811000000 -34.479626 -14.822486 -1.1483634 107.04775 -1.1451277 107.04098 -34.748833 37.509659
2812000000 -34.643959 -18.505604 -1.1490142 104.41093 -1.1464539 104.38766 -35.023003 33.824383
2813000000 -34.702427 -21.470631 -1.1489859 101.76733 -1.1498497 101.76605 -34.706696 32.878712
2814000000 -34.568092 -24.993549 -1.1489279 99.107422 -1.1482804 99.129585 -35.240055 30.829638
2815000000 -34.345188 -28.385088 -1.1537691 96.478737 -1.1501722 96.450752 -35.078243 30.15086
2816000000 -34.835926 -31.420673 -1.1489623 93.817268 -1.1486129 93.787918 -35.614342 27.410583
2817000000 -34.452816 -33.325645 -1.1486661 91.14019 -1.1490469 91.160683 -35.752289 25.693422
2818000000 -34.874325 -37.086678 -1.1486945 88.528191 -1.1462971 88.508591 -35.895596 24.796417
2819000000 -34.882381 -40.454113 -1.1529988 85.860916 -1.1452618 85.864334 -36.340561 22.795616
2820000000 -34.836395 -44.43581 -1.1500875 83.230255 -1.1460221 83.20285 -36.82579 22.156799
2821000000 -35.201359 -46.984425 -1.1519254 80.593063 -1.1519865 80.547394 -37.229378 15.892969
2822000000 -35.204346 -50.254276 -1.1452132 77.915848 -1.14842 77.901558 -37.732262 17.407143
2823000000 -35.617424 -53.509483 -1.1530653 75.292282 -1.149393 75.221283 -38.120121 15.171706
2824000000 -35.524075 -58.889065 -1.1492233 72.636063 -1.1493583 72.622681 -38.556915 16.015675
2825000000 -35.556446 -60.504322 -1.1514311 69.972939 -1.1487262 69.957787 -38.743275 15.773915
2826000000 -36.193115 -63.591972 -1.1496935 67.330582 -1.1509694 67.292221 -39.841892 10.635406
2827000000 -36.238697 -68.179443 -1.1488328 64.689186 -1.146979 64.650887 -39.951359 9.9385347
2828000000 -36.465782 -69.767914 -1.1496125 62.031197 -1.1509742 61.987484 -40.797226 7.6278052
2829000000 -36.830162 -74.396278 -1.1510764 59.365322 -1.151536 59.328648 -41.519924 6.588613
2830000000 -37.112003 -78.191597 -1.1461093 56.695145 -1.1492736 56.712784 -42.707256 5.280303
2831000000 -36.936188 -82.715591 -1.1480814 54.07254 -1.1477314 54.035492 -43.497929 7.495441
2832000000 -37.664608 -86.840157 -1.1521063 51.416039 -1.150514 51.368557 -44.47364 5.0669694
2833000000 -37.917633 -86.977501 -1.154248 48.763485 -1.152166 48.775192 -44.893391 5.6911821
2834000000 -38.292538 -92.78463 -1.1507002 46.122738 -1.1497715 46.094421 -45.337753 5.9477911
2835000000 -38.898232 -95.268341 -1.1581521 43.449928 -1.1502016 43.441467 -46.928158 7.0990791
2836000000 -39.142025 -97.695534 -1.1564025 40.806576 -1.1450448 40.797066 -48.744324 12.305721
2837000000 -39.154373 -100.02267 -1.1554515 38.205452 -1.1514368 38.130581 -48.300011 18.609688
2838000000 -40.022625 -103.43375 -1.1558546 35.528049 -1.155408 35.471272 -48.994492 19.178747
2839000000 -40.763226 -111.64455 -1.1530302 32.871353 -1.1509067 32.849964 -50.772648 39.450214
2840000000 -41.274033 -114.07303 -1.1533431 30.219807 -1.1516244 30.181473 -51.570911 60.854034
2841000000 -41.686516 -115.81549 -1.149452 27.543262 -1.1544192 27.549152 -50.095615 68.813805
2842000000 -42.642479 -118.82427 -1.1585381 24.920101 -1.1500889 24.896551 -48.231403 69.729134
2843000000 -44.01881 -124.28704 -1.1519841 22.266195 -1.1519481 22.230808 -48.072533 81.815437
2844000000 -43.35738 -122.95885 -1.1564522 19.627455 -1.1579018 19.600916 -48.740894 82.654877
2845000000 -45.188766 -132.43292 -1.1504569 16.970036 -1.1517034 16.941292 -46.581547 87.358566
2846000000 -46.878925 -142.66035 -1.1564467 14.324185 -1.1525141 14.291981 -45.194393 93.178886
2847000000 -49.683903 -148.65919 -1.1522585 11.655887 -1.156013 11.646876 -44.809715 88.640671
2848000000 -52.984203 -163.2753 -1.1526271 9.0069256 -1.1534349 8.974288 -42.686539 90.267914
2849000000 -52.272526 -161.41286 -1.1561512 6.3547873 -1.1523844 6.3357968 -42.336166 89.640877
2850000000 -51.701492 165.26874 -1.1550584 3.7266426 -1.1494949 3.7334638 -42.137894 95.390182
2851000000 -56.248169 128.58014 -1.1571603 1.0252612 -1.1527399 1.03549 -40.779488 88.40097
2852000000 -56.105755 103.8252 -1.1589491 -1.5670832 -1.1566086 -1.6028692 -40.772568 89.941742
2853000000 -51.771179 79.930901 -1.1560565 -4.2463059 -1.1561964 -4.2288451 -39.830967 87.555962
2854000000 -50.726521 64.385086 -1.1545532 -6.9161115 -1.1530353 -6.9251838 -39.636139 86.484871
2855000000 -48.08091 65.829903 -1.158216 -9.5481634 -1.1540295 -9.5689726 -38.893253 85.789879
2856000000 -46.744728 58.575832 -1.1578307 -12.181166 -1.1556039 -12.193546 -38.499527 82.519615
2857000000 -44.7356 47.88765 -1.1558583 -14.837743 -1.1593846 -14.873137 -38.085533 80.285049
2858000000 -44.512806 49.266102 -1.1591121 -17.50613 -1.1538434 -17.514759 -37.820045 79.735359
2859000000 -42.279179 42.793613 -1.156184 -20.163193 -1.1540194 -20.18541 -37.277912 75.422577
2860000000 -41.37207 40.678802 -1.1551151 -22.785961 -1.1557266 -22.80418 -36.708775 78.320816
2861000000 -41.331772 35.679485 -1.1610502 -25.405121 -1.1594073 -25.455927 -36.731232 74.154655
2862000000 -39.750565 29.899591 -1.1601818 -28.088055 -1.1540825 -28.110466 -36.378693 73.937607
2863000000 -39.704639 27.9678 -1.1608915 -30.732573 -1.1551881 -30.754272 -36.144558 70.414894
2864000000 -38.865219 27.477251 -1.1549838 -33.392242 -1.1554668 -33.404835 -36.040062 68.275169
2865000000 -38.563854 20.431978 -1.1565555 -36.057018 -1.1596754 -36.068768 -35.644005 67.99202
2866000000 -38.228546 19.468521 -1.1579263 -38.695812 -1.1568127 -38.727829 -35.371258 65.461815
2867000000 -37.532162 16.35251 -1.1620283 -41.353638 -1.1580751 -41.352108 -35.380024 65.142509
2868000000 -37.222855 11.336398 -1.1628207 -43.989891 -1.1595867 -44.006672 -35.15036 62.348637
2869000000 -36.946033 10.834594 -1.1583488 -46.632072 -1.1589156 -46.635509 -34.960598 60.582207
2870000000 -36.873016 7.4786057 -1.1611564 -49.320766 -1.1580139 -49.298645 -34.843441 58.760262
2871000000 -36.590981 1.8367928 -1.1646359 -51.929333 -1.1618775 -51.948765 -34.65728 57.779152
2872000000 -36.144001 2.978471 -1.1625443 -54.588699 -1.1613972 -54.598339 -35.069897 53.269955
2873000000 -35.684517 -2.280556 -1.1619458 -57.250404 -1.1625216 -57.259514 -34.962353 54.190529
2874000000 -35.793579 -5.0949049 -1.1621995 -59.882168 -1.1633701 -59.897385 -34.618359 49.781776
2875000000 -35.448154 -6.7607584 -1.1587946 -62.552643 -1.1605798 -62.551277 -35.195549 48.731636
2876000000 -35.457108 -10.504879 -1.1580176 -65.174377 -1.1610211 -65.194191 -34.880161 46.996841
2877000000 -35.190121 -13.356277 -1.1648508 -67.830917 -1.1615731 -67.840187 -34.940521 45.667095
2878000000 -35.225292 -15.659969 -1.1601703 -70.47963 -1.1616327 -70.512207 -35.320778 39.436787
2879000000 -34.999535 -20.941137 -1.1640019 -73.120552 -1.1609657 -73.151146 -34.952671 38.279236
2880000000 -34.712906 -23.426399 -1.1589326 -75.783676 -1.1601937 -75.824768 -35.022476 37.6199
2881000000 -34.693729 -25.435024 -1.1629188 -78.432022 -1.1619661 -78.445854 -35.226151 34.688965
2882000000 -34.721947 -29.349901 -1.1635089 -81.092422 -1.1630992 -81.097992 -35.235016 33.513138
2883000000 -34.711983 -29.856348 -1.1634561 -83.735298 -1.1598653 -83.759857 -35.52776 28.639877
2884000000 -34.561142 -35.905621 -1.1661668 -86.388962 -1.1613411 -86.402672 -35.787693 30.020102
2885000000 -34.680393 -37.902443 -1.1599728 -89.025452 -1.1602799 -89.054955 -35.875305 26.476002
2886000000 -34.886509 -40.012741 -1.162591 -91.67421 -1.1645956 -91.687195 -35.9473 21.850534
2887000000 -34.812237 -41.500462 -1.1635685 -94.31971 -1.1616743 -94.358902 -36.240673 19.156248
2888000000 -34.660801 -45.720715 -1.1631726 -97.001167 -1.1626484 -96.981293 -36.018719 15.940347
2889000000 -34.587078 -49.061825 -1.1632081 -99.627777 -1.1621319 -99.647224 -36.764938 14.924259
2890000000 -34.865826 -52.075867 -1.1671853 -102.28215 -1.1673516 -102.30753 -36.725685 13.666896
2891000000 -34.821102 -55.140915 -1.165185 -104.94325 -1.1602274 -104.95791 -37.278484 11.60987
2892000000 -34.83239 -56.796494 -1.1648626 -107.57755 -1.1609007 -107.59451 -37.351849 7.2512865
2893000000 -34.812008 -61.880375 -1.1666706 -110.24061 -1.1557231 -110.25246 -37.588699 4.1717911
2894000000 -34.78949 -61.775368 -1.1683515 -112.89178 -1.1636571 -112.87669 -37.524952 3.0301318
2895000000 -35.083782 -64.327522 -1.1680579 -115.53775 -1.1639559 -115.56089 -38.439907 0.42559642
2896000000 -35.193516 -66.129921 -1.1649835 -118.1873 -1.1630473 -118.21175 -38.734184 0.25681537
2897000000 -35.352394 -69.964584 -1.1629665 -120.85901 -1.1622713 -120.8461 -39.263264 -2.7071514
2898000000 -35.354485 -72.648972 -1.1676588 -123.49653 -1.1641587 -123.50401 -38.965607 -5.5961113
2899000000 -35.555504 -74.844063 -1.163803 -126.14976 -1.166114 -126.15527 -39.417465 -6.4968128
2900000000 -35.773098 -79.6297 -1.1645892 -128.76939 -1.1637756 -128.80774 -39.78801 -7.171031
2901000000 -36.137444 -79.809906 -1.1650584 -131.4502 -1.1650864 -131.43883 -40.427013 -13.362733
2902000000 -36.208015 -81.46669 -1.1652126 -134.07938 -1.1648939 -134.10472 -40.931328 -14.000159
2903000000 -36.278828 -83.874626 -1.1653258 -136.70961 -1.166658 -136.76216 -42.16785 -11.828268
2904000000 -36.752129 -88.003418 -1.1615944 -139.37427 -1.1638392 -139.41629 -42.866985 -13.45329
2905000000 -37.220184 -87.722839 -1.1665589 -142.04089 -1.1664106 -142.0544 -43.884781 -12.778039
2906000000 -37.294514 -93.438431 -1.16773 -144.67427 -1.1665859 -144.66095 -43.901764 -23.412872
2907000000 -37.983974 -92.802841 -1.1658285 -147.33601 -1.1642531 -147.35547 -44.743141 -16.492643
2908000000 -38.121017 -91.85334 -1.1702511 -150.00514 -1.1654524 -149.97668 -45.896236 -20.443611
2909000000 -39.134815 -95.979919 -1.1676921 -152.63716 -1.1654428 -152.66257 -46.153942 -9.4483852
2910000000 -39.129333 -96.835106 -1.1707445 -155.3008 -1.1665149 -155.31131 -48.853374 -7.7636986
2911000000 -39.591515 -100.76385 -1.1677988 -157.94655 -1.1617672 -157.95268 -50.554081 -0.80468976
2912000000 -40.517838 -104.45359 -1.1675633 -160.58963 -1.1629107 -160.59995 -52.239887 4.1479154
2913000000 -41.406208 -103.68015 -1.1674969 -163.24712 -1.1659087 -163.24049 -49.607021 22.267405
2914000000 -41.482315 -111.47665 -1.1682225 -165.8828 -1.1695913 -165.8903 -53.37748 28.184898
2915000000 -43.994267 -109.18925 -1.1648346 -168.54836 -1.1661298 -168.54822 -50.719334 57.010403
2916000000 -44.353706 -107.381 -1.1697381 -171.1758 -1.1634016 -171.21597 -50.70715 61.04311
2917000000 -45.765415 -102.13053 -1.1683248 -173.84595 -1.1707578 -173.8485 -49.501541 75.126312
2918000000 -46.462742 -105.50574 -1.170487 -176.46707 -1.1641613 -176.5038 -49.027565 82.817566
2919000000 -50.322838 -90.500908 -1.1701999 -179.13516 -1.1650231 -179.17673 -47.252033 79.122032
2920000000 -51.815338 -95.529549 -1.17067 178.21288 -1.1683556 178.18724 -45.431103 84.362915
2921000000 -52.635139 -87.917961 -1.1683695 175.54282 -1.1675988 175.56677 -44.776592 90.779762
2922000000 -56.072308 -73.293175 -1.1679115 172.90677 -1.1700531 172.89629 -43.895752 89.606087
2923000000 -55.984741 -42.178188 -1.1691755 170.27097 -1.1696329 170.23108 -42.996887 85.950981
2924000000 -55.891396 -36.542286 -1.17171 167.619 -1.1674346 167.59869 -42.338978 89.957245
2925000000 -52.0644 -7.8218918 -1.1719694 164.96204 -1.1644267 164.95328 -41.290211 91.48526
2926000000 -49.711594 -5.2573161 -1.1706303 162.3197 -1.1686476 162.29599 -41.333794 89.155922
2927000000 -49.625271 -5.8837934 -1.1685632 159.68118 -1.1689837 159.64496 -40.419052 88.136261
2928000000 -47.400295 0.60241598 -1.1719466 157.00566 -1.1710314 157.00269 -40.082378 86.134499
2929000000 -44.933708 1.437433 -1.1738342 154.34573 -1.1708988 154.3309 -39.570129 85.967598
2930000000 -44.751728 7.173945 -1.1687236 151.69998 -1.1690166 151.65623 -38.922653 83.945198
2931000000 -44.601604 -3.5541866 -1.1717117 149.08748 -1.1699648 149.00575 -38.65765 85.005554
2932000000 -43.364971 1.757387 -1.1673032 146.40987 -1.1706018 146.39502 -38.726799 84.237839
2933000000 -42.442467 -2.9381824 -1.1724163 143.74852 -1.1731657 143.74414 -38.306889 81.156769
2934000000 -41.481495 -9.411149 -1.1755478 141.0937 -1.1690736 141.09172 -38.36433 79.314262
2935000000 -41.128719 -10.649587 -1.1715246 138.46539 -1.1750423 138.42331 -38.00666 78.400307
2936000000 -40.41806 -14.794271 -1.1765082 135.78165 -1.1704047 135.79529 -37.741901 77.970779
2937000000 -40.667652 -17.566004 -1.1743128 133.17113 -1.1698245 133.1459 -37.044064 73.961227
2938000000 -39.329433 -20.60478 -1.1720358 130.50835 -1.1750375 130.51976 -37.577805 72.794441
2939000000 -38.891537 -21.014881 -1.1730748 127.85449 -1.1757925 127.85047 -37.048077 70.07917
2940000000 -38.126324 -20.379892 -1.1734662 125.21276 -1.1702263 125.21182 -37.137741 71.021881
2941000000 -38.061939 -25.270144 -1.1769613 122.57166 -1.1701189 122.52369 -36.780209 67.916275
2942000000 -37.974644 -29.582659 -1.1740965 119.89172 -1.1733763 119.89687 -37.259418 66.063431
2943000000 -36.823112 -33.299191 -1.1747247 117.23243 -1.1695828 117.2466 -36.968243 64.767006
2944000000 -37.226986 -36.667603 -1.1782908 114.61356 -1.1722742 114.57667 -36.805168 60.950695
2945000000 -37.117249 -41.756042 -1.1768663 111.98616 -1.1781309 111.92422 -37.054565 59.650459
2946000000 -36.418941 -43.186661 -1.1745578 109.32558 -1.1750776 109.30843 -36.741329 59.785118
2947000000 -36.298668 -43.983212 -1.1770149 106.66471 -1.1741836 106.62259 -36.96447 57.689007
2948000000 -36.052017 -48.866772 -1.1783553 104.02782 -1.1762191 104.01225 -36.873177 55.727093
2949000000 -36.0369 -50.236382 -1.1760973 101.3727 -1.1706938 101.32053 -37.153503 50.125931
2950000000 -36.051563 -51.934769 -1.1755455 98.73732 -1.1760396 98.668167 -37.331398 49.248291
2951000000 -35.727287 -55.714573 -1.1809736 96.052544 -1.1744685 96.064651 -37.059071 48.194828
2952000000 -35.724823 -60.141373 -1.176494 93.428375 -1.1744251 93.390907 -37.088039 48.103157
2953000000 -35.326584 -63.331734 -1.1785855 90.758759 -1.1727307 90.746353 -37.172806 45.431713
2954000000 -35.341141 -64.914192 -1.1766664 88.090775 -1.1735622 88.103462 -37.571102 43.887157
2955000000 -35.279995 -66.602982 -1.1766675 85.481369 -1.1774427 85.488701 -37.080097 38.3615
2956000000 -35.016346 -70.20282 -1.1767169 82.800255 -1.1770638 82.801117 -37.358276 41.818825
2957000000 -34.986687 -72.052094 -1.1796026 80.162514 -1.1745731 80.155273 -37.417568 39.554325
2958000000 -35.187229 -74.799583 -1.1778073 77.524422 -1.178542 77.498589 -37.945042 37.967484
2959000000 -34.896687 -78.568962 -1.1781492 74.859909 -1.1770638 74.84874 -37.869514 37.796753
2960000000 -35.101685 -80.730568 -1.1765229 72.211899 -1.1779798 72.188354 -38.146194 36.685341
2961000000 -35.145126 -82.654648 -1.1767594 69.587433 -1.175804 69.546967 -38.301205 32.644978
2962000000 -35.286289 -84.808113 -1.1806629 66.889725 -1.1754758 66.891525 -38.544556 33.942146
2963000000 -35.557964 -89.217178 -1.1791564 64.253242 -1.1776185 64.233459 -38.670296 32.090126
2964000000 -35.406456 -89.853226 -1.1799097 61.629848 -1.1788582 61.605904 -38.717873 31.086462
2965000000 -35.792393 -93.413399 -1.1816733 58.953823 -1.1810535 58.951534 -38.897327 31.39263
2966000000 -35.909439 -95.624611 -1.1797154 56.32494 -1.177475 56.309765 -39.504471 32.04829
2967000000 -36.36544 -98.814247 -1.181275 53.658512 -1.1755852 53.63102 -39.680321 32.34597
2968000000 -36.395782 -100.72382 -1.183562 51.007172 -1.1790376 51.020382 -40.367199 29.449047
2969000000 -36.909176 -104.03552 -1.1849805 48.384899 -1.1787329 48.356285 -40.352238 33.28653
2970000000 -36.933468 -108.96768 -1.1799332 45.697651 -1.1775293 45.702393 -40.69022 36.903488
2971000000 -37.188267 -112.66743 -1.1802025 43.026287 -1.1774234 43.076488 -40.949646 32.565262
2972000000 -37.0993 -114.52051 -1.1792101 40.43372 -1.1768374 40.385841 -41.3764 37.241486
2973000000 -37.976032 -117.82864 -1.1822234 37.759583 -1.1788113 37.721115 -41.405182 36.251549
2974000000 -38.044754 -120.80651 -1.1799604 35.127979 -1.1816298 35.073566 -41.410389 40.437073
2975000000 -39.043472 -128.36668 -1.1779218 32.466248 -1.1801206 32.419136 -41.920807 40.818165
2976000000 -39.165897 -131.21625 -1.1804172 29.809965 -1.1788361 29.774485 -41.548172 45.604786
2977000000 -39.694847 -134.05363 -1.1868455 27.189369 -1.1777703 27.137625 -41.814011 49.231369
2978000000 -39.981087 -139.20844 -1.1813424 24.520258 -1.1791357 24.480474 -42.065281 52.292778
2979000000 -40.404728 -141.77592 -1.1807508 21.87851 -1.1775784 21.856506 -42.016224 54.975288
2980000000 -40.857746 -147.22334 -1.1802901 19.199211 -1.1795642 19.160786 -41.604713 57.863419
2981000000 -41.803276 -152.56165 -1.1853907 16.55435 -1.177882 16.536793 -41.900166 58.902351
2982000000 -41.882957 -155.63519 -1.1847095 13.922978 -1.1840311 13.872964 -41.680984 59.773479
2983000000 -43.151676 -162.63348 -1.1796179 11.264723 -1.1793873 11.222019 -41.489819 64.391762
2984000000 -43.069 -169.35931 -1.1853015 8.6184082 -1.1792281 8.5755024 -41.209778 71.512215
2985000000 -44.0369 178.11722 -1.1852134 5.9552369 -1.1775075 5.9405723 -40.630264 69.701263
2986000000 -44.958809 174.96121 -1.1829916 3.3191173 -1.1815 3.2924464 -40.901485 67.203224
2987000000 -45.469833 166.68108 -1.1852893 0.64603359 -1.1826928 0.61552083 -39.8937 66.917816
2988000000 -45.591976 154.32497 -1.1870724 -2.0216331 -1.1843657 -1.9992415 -39.856186 73.2155
2989000000 -46.444286 144.49789 -1.1834791 -4.6410837 -1.1819574 -4.6670828 -39.868832 73.513306
2990000000 -47.718555 141.00772 -1.185008 -7.2925162 -1.1854036 -7.3159823 -39.84354 73.716843
2991000000 -47.104389 125.36841 -1.1856328 -9.9367533 -1.1802245 -9.9632645 -38.999168 73.517616
2992000000 -48.518818 108.50378 -1.1854495 -12.599754 -1.1817704 -12.615667 -38.783192 73.810112
2993000000 -47.550861 100.21935 -1.1855025 -15.232824 -1.1814786 -15.257274 -38.775372 71.417122
2994000000 -47.57267 82.513 -1.1862319 -17.911556 -1.1824893 -17.928364 -38.461155 72.37468
2995000000 -46.030834 78.220184 -1.184381 -20.552338 -1.1832044 -20.564316 -38.095024 73.536293
2996000000 -46.024395 65.024513 -1.1867288 -23.185293 -1.1837497 -23.228277 -37.657127 70.878746
2997000000 -46.014427 51.233208 -1.1886221 -25.841578 -1.1838615 -25.86692 -37.958908 70.013893
2998000000 -45.538738 48.944134 -1.185611 -28.512871 -1.1871653 -28.493097 -37.454742 69.076988
2999000000 -44.88586 37.345516 -1.1914353 -31.14716 -1.1850785 -31.147575 -37.386566 67.070145
3000000000 -43.514534 29.933558 -1.1913788 -33.801193 -1.1858968 -33.804962 -37.258602 64.63327
3001000000 -42.985237 27.752197 -1.1876876 -36.442673 -1.1832581 -36.442638 -36.589333 66.704163
3002000000 -42.050278 14.401711 -1.1862818 -39.096531 -1.1872065 -39.115993 -36.767124 66.497925
3003000000 -41.311768 14.559424 -1.1868856 -41.743134 -1.1834655 -41.763966 -36.613148 63.382641
3004000000 -41.541813 6.3393793 -1.1920011 -44.398888 -1.1883301 -44.405003 -36.370583 62.606068
3005000000 -40.24543 3.4524791 -1.1901584 -47.031219 -1.1868962 -47.057037 -36.723282 58.969948
3006000000 -39.803146 -1.2769718 -1.1894673 -49.688053 -1.1901171 -49.700497 -36.409603 58.846397
3007000000 -39.71162 -4.552515 -1.1888556 -52.338478 -1.1836348 -52.364609 -36.087563 56.317139
3008000000 -39.242832 -10.218861 -1.1912886 -55.001907 -1.1880163 -55.003738 -36.147102 57.030415
3009000000 -38.453197 -13.018464 -1.1924493 -57.660473 -1.1840509 -57.643879 -35.873173 55.902676
3010000000 -38.030174 -17.630857 -1.1899824 -60.278004 -1.1875284 -60.32872 -36.062168 52.924564
3011000000 -37.255886 -23.436468 -1.1869162 -62.934341 -1.1870548 -62.97961 -35.81897 50.616104
3012000000 -37.542645 -24.53648 -1.187939 -65.59623 -1.1897821 -65.627151 -36.149323 48.808605
3013000000 -37.270561 -28.367979 -1.1891609 -68.237213 -1.1886146 -68.277863 -35.680389 48.193424
3014000000 -36.863674 -33.097225 -1.1876835 -70.891296 -1.1900954 -70.923027 -35.610249 47.814491
3015000000 -36.594227 -35.401619 -1.190617 -73.533035 -1.1879992 -73.574509 -35.788448 46.033913
3016000000 -36.181057 -38.451279 -1.1910726 -76.184937 -1.1892362 -76.233788 -35.882511 45.845402
3017000000 -35.965813 -41.462143 -1.1904335 -78.854485 -1.19008 -78.863541 -35.554649 43.507446
3018000000 -35.957336 -44.069725 -1.1894363 -81.48259 -1.1826863 -81.539993 -35.808678 39.826035
3019000000 -35.986008 -47.407673 -1.1905711 -84.120392 -1.1877328 -84.169678 -35.718502 41.531288
3020000000 -35.574562 -52.278831 -1.1882709 -86.782845 -1.187121 -86.83268 -36.052444 39.456726
3021000000 -35.707397 -54.978794 -1.1918437 -89.448448 -1.1906122 -89.464134 -36.207005 39.208366
3022000000 -35.849533 -57.459785 -1.1924568 -92.09362 -1.1895462 -92.103035 -35.916676 36.469208
3023000000 -35.736729 -61.943565 -1.1920385 -94.756294 -1.1909926 -94.773476 -36.25214 38.697342
3024000000 -35.720524 -62.721184 -1.1930697 -97.392082 -1.19293 -97.407959 -36.371536 37.857258
3025000000 -35.48872 -68.311356 -1.1906545 -100.0375 -1.1930431 -100.07719 -36.223454 35.866871
3026000000 -35.358292 -71.042252 -1.1913536 -102.6964 -1.1846235 -102.69645 -36.464569 35.484211
3027000000 -35.508087 -74.565643 -1.1929181 -105.34641 -1.1890813 -105.34646 -36.687241 35.632603
3028000000 -35.530392 -75.786179 -1.1933402 -107.96497 -1.1903327 -108.00941 -37.111816 36.470123
3029000000 -35.731762 -80.505959 -1.1917704 -110.65194 -1.1903794 -110.66978 -37.290539 35.315861
3030000000 -35.802635 -86.571312 -1.1926122 -113.28268 -1.19063 -113.32446 -37.147152 35.273823
3031000000 -35.845573 -89.419403 -1.1954968 -115.92562 -1.188985 -115.95161 -37.041752 33.955284
3032000000 -36.20269 -92.260628 -1.1927662 -118.5919 -1.1913468 -118.61117 -37.581234 33.50975
3033000000 -36.504028 -98.943237 -1.1993837 -121.24503 -1.1909606 -121.25591 -37.640823 35.265133
3034000000 -36.15287 -102.1446 -1.1946034 -123.88142 -1.1884383 -123.92 -37.894333 37.264339
3035000000 -36.542351 -105.78691 -1.1936036 -126.53215 -1.1888494 -126.55061 -37.753384 40.069942
3036000000 -36.86834 -112.1357 -1.1954035 -129.19708 -1.1955811 -129.20488 -38.326073 41.973122
3037000000 -37.006859 -116.6701 -1.1925601 -131.86079 -1.1901954 -131.85724 -38.241756 41.27375
3038000000 -37.189533 -119.71613 -1.1960396 -134.47832 -1.1925832 -134.51122 -38.479294 44.090229
3039000000 -37.074272 -126.76162 -1.196153 -137.13963 -1.1928751 -137.18112 -38.480297 46.250511
3040000000 -37.573692 -131.23552 -1.1926129 -139.7991 -1.1938571 -139.8241 -38.398083 45.36277
3041000000 -38.028847 -134.74492 -1.1966727 -142.44873 -1.1954106 -142.45863 -38.557129 49.369522
3042000000 -37.694542 -141.60532 -1.1946267 -145.09743 -1.1932265 -145.10175 -38.294792 49.213547
3043000000 -38.12611 -147.25766 -1.195703 -147.75577 -1.1981337 -147.76907 -38.827728 52.27177
3044000000 -38.056541 -152.71098 -1.1974725 -150.39705 -1.1940974 -150.40935 -38.194893 54.433014
3045000000 -38.552353 -158.90437 -1.1968473 -153.0446 -1.1920998 -153.06979 -38.474434 59.207134
3046000000 -38.332401 -164.01794 -1.199916 -155.70624 -1.1946096 -155.71144 -38.108215 56.96759
3047000000 -38.660885 -169.86401 -1.1975819 -158.33974 -1.1918035 -158.35547 -37.96339 57.568279
3048000000 -38.824684 -175.76997 -1.1947691 -160.99901 -1.1969032 -161.02898 -37.72728 60.242821
3049000000 -38.403358 175.45302 -1.1927021 -163.67384 -1.1940033 -163.69557 -37.589172 65.311844
3050000000 -38.5816 174.0864 -1.195249 -166.32861 -1.1929753 -166.30133 -36.925465 63.97802
3051000000 -39.085869 164.12062 -1.1985086 -168.93839 -1.1914421 -168.99367 -36.772675 65.376106
3052000000 -39.385971 156.57214 -1.1978421 -171.59201 -1.1953182 -171.62082 -36.697433 63.299347
3053000000 -39.445313 152.19942 -1.197925 -174.24185 -1.1998843 -174.24458 -36.459072 63.702381
3054000000 -39.405663 144.57343 -1.2013788 -176.88541 -1.1958913 -176.92865 -36.104015 63.266464
3055000000 -39.217945 136.33513 -1.2000102 -179.54729 -1.1956946 -179.56873 -35.590458 66.618324
3056000000 -39.709526 131.61897 -1.2007234 177.80923 -1.1955835 177.78664 -35.560013 63.925873
3057000000 -39.205036 122.26195 -1.1952115 175.15651 -1.1962162 175.14529 -35.355564 64.389542
3058000000 -39.541927 113.48746 -1.1983569 172.48926 -1.1954594 172.48607 -34.833546 63.583893
3059000000 -39.10968 106.28564 -1.197605 169.8591 -1.1962271 169.83475 -34.734589 63.620598
3060000000 -39.274418 102.97733 -1.2023211 167.19217 -1.1981238 167.20401 -34.527714 62.656563
3061000000 -38.689846 92.985107 -1.1984056 164.58104 -1.1975062 164.5491 -34.065594 63.13118
3062000000 -38.731754 87.467079 -1.1966888 161.90959 -1.1950755 161.88095 -33.946186 61.710651
3063000000 -38.797421 80.458832 -1.2074276 159.26115 -1.1962421 159.23117 -33.732994 59.439804
3064000000 -37.86805 73.510559 -1.2023787 156.59033 -1.1991653 156.5724 -33.51408 57.86488
3065000000 -37.716785 68.373077 -1.1995598 153.96515 -1.2019718 153.93726 -33.379219 58.276051
3066000000 -37.530586 60.485691 -1.1999068 151.29887 -1.1984901 151.27202 -33.049313 56.57095
3067000000 -37.085678 56.84499 -1.1991032 148.65189 -1.200362 148.6436 -32.924068 54.96109
3068000000 -36.441498 50.208569 -1.2032894 145.99002 -1.2021397 145.96506 -32.922173 54.466225
3069000000 -36.124516 45.987614 -1.2002269 143.37012 -1.1976187 143.31984 -32.482731 52.020031
3070000000 -35.506775 40.338329 -1.1982992 140.70624 -1.2007384 140.6732 -32.377335 51.197742
3071000000 -35.618061 36.283489 -1.2000409 138.05493 -1.2012798 138.03928 -32.148586 49.280102
3072000000 -35.305321 31.760759 -1.2027 135.42078 -1.2018423 135.38654 -32.002388 49.394585
3073000000 -35.012203 24.43696 -1.2009795 132.75424 -1.1975266 132.75066 -31.763184 46.467697
3074000000 -34.823151 23.301422 -1.2071064 130.11494 -1.2031248 130.0945 -31.988047 46.507259
3075000000 -34.289822 21.255098 -1.2069676 127.47559 -1.2037908 127.43718 -31.78027 43.805187
3076000000 -34.088829 15.244046 -1.2027669 124.80581 -1.2047278 124.78685 -31.716288 43.373791
3077000000 -33.882931 9.547122 -1.2027301 122.16675 -1.2063456 122.1316 -31.749159 40.746746
3078000000 -33.857452 7.105763 -1.2042389 119.50787 -1.1992912 119.51804 -31.452021 39.943729
3079000000 -33.50626 2.6599574 -1.2043509 116.85055 -1.2026126 116.84749 -31.556135 37.911671
3080000000 -33.432755 -0.3032259 -1.2074898 114.20581 -1.2045996 114.21205 -31.402325 36.910778
3081000000 -33.173813 -3.4131329 -1.2088362 111.55367 -1.202616 111.54815 -31.54528 34.952919
3082000000 -33.187035 -7.7107081 -1.2060041 108.92159 -1.2029705 108.87641 -31.365849 34.227638
3083000000 -32.995613 -10.194768 -1.2060018 106.24283 -1.2026006 106.24306 -31.345139 31.682325
3084000000 -32.776508 -13.204683 -1.2037939 103.61978 -1.2052269 103.5863 -31.369919 29.909395
3085000000 -32.4907 -17.64711 -1.2042218 100.96446 -1.2044616 100.92873 -31.229975 28.465347
3086000000 -32.399635 -20.186432 -1.2070985 98.308952 -1.2035958 98.305344 -31.403704 27.996077
3087000000 -32.417908 -24.670504 -1.2059342 95.658112 -1.2034622 95.655876 -31.334013 25.743982
3088000000 -32.444721 -27.753159 -1.2073703 93.000595 -1.2020236 92.980934 -31.375875 24.519411
3089000000 -32.424576 -31.03931 -1.2116228 90.39122 -1.2024125 90.329941 -31.629333 23.071413
3090000000 -32.436489 -34.915882 -1.2044288 87.707939 -1.2051055 87.707413 -31.43387 20.470667
3091000000 -32.334854 -38.106556 -1.209052 85.085289 -1.2070267 85.055878 -31.624861 20.213459
3092000000 -32.284836 -42.590199 -1.209568 82.40229 -1.2092253 82.384178 -31.788635 18.472843
3093000000 -32.289749 -45.032833 -1.202318 79.762932 -1.2073333 79.782051 -31.931271 17.114067
3094000000 -32.146797 -50.505165 -1.2079141 77.12558 -1.2049338 77.08107 -31.764456 16.962708
3095000000 -32.082794 -52.067017 -1.2077188 74.441902 -1.2054725 74.449928 -32.065136 14.494902
3096000000 -32.367992 -56.475323 -1.2087176 71.844933 -1.2009269 71.78611 -32.240013 12.438293
3097000000 -32.185833 -59.847641 -1.2091204 69.186409 -1.2042867 69.157623 -32.309525 12.195576
3098000000 -32.26852 -64.708954 -1.2107049 66.528069 -1.2066395 66.491341 -32.485012 9.0586166
3099000000 -32.557331 -67.533646 -1.2069184 63.854935 -1.2088838 63.865181 -32.580097 8.262085
3100000000 -32.528065 -70.730865 -1.2107733 61.206242 -1.2053556 61.196453 -32.747337 8.101018
3101000000 -32.464436 -74.597786 -1.2088587 58.583031 -1.2081923 58.543888 -32.95504 6.1522598
3102000000 -32.61573 -78.274147 -1.2066483 55.918438 -1.2047027 55.935173 -33.184547 4.9763246
3103000000 -32.5331 -83.034126 -1.2107056 53.26527 -1.2043188 53.239437 -33.439468 4.0059876
3104000000 -32.674839 -85.590149 -1.2106215 50.623783 -1.2063752 50.615112 -33.601631 3.2345805
3105000000 -32.654823 -90.591873 -1.2052795 47.98671 -1.2066904 47.93177 -33.770226 3.7374549
3106000000 -32.744221 -95.039543 -1.205259 45.316734 -1.2096699 45.306633 -34.083656 1.8017542
3107000000 -33.000088 -96.898178 -1.2056372 42.667641 -1.2083029 42.65675 -33.983345 1.4993557
3108000000 -33.126007 -101.25172 -1.2103457 40.019951 -1.2087835 39.998577 -34.240044 -0.28958145
3109000000 -33.218552 -103.8358 -1.2070544 37.377277 -1.2076211 37.352615 -34.675831 0.088355117
3110000000 -33.418133 -110.07352 -1.2085763 34.707211 -1.2044568 34.704319 -34.860397 -0.50756311
3111000000 -33.421272 -112.04341 -1.2103236 32.067841 -1.207684 32.054493 -34.919983 0.69199508
3112000000 -33.93071 -116.42048 -1.2126511 29.439751 -1.2068477 29.402349 -35.181858 -0.97015208
3113000000 -33.736221 -119.98342 -1.2103605 26.781975 -1.2053888 26.756107 -35.380714 -0.48446512
3114000000 -34.164951 -124.027 -1.2077675 24.116301 -1.2065372 24.099741 -35.680424 -0.81946826
3115000000 -34.386677 -125.24564 -1.2094678 21.464731 -1.209306 21.461987 -35.936157 0.10011187
3116000000 -34.408905 -130.33766 -1.2096012 18.822062 -1.2067963 18.788813 -36.19154 -0.7855947
3117000000 -34.896687 -136.86171 -1.2094634 16.187164 -1.2052883 16.15683 -36.402771 0.94506735
3118000000 -34.843769 -139.74594 -1.2086649 13.523242 -1.208509 13.511575 -36.483601 -0.5876947
3119000000 -35.442509 -143.72604 -1.2118819 10.866681 -1.2053242 10.84162 -36.752026 1.8140461
3120000000 -35.550644 -148.71404 -1.2101214 8.2337885 -1.2051913 8.227644 -36.769409 4.2758565
3121000000 -35.65155 -152.75676 -1.2101758 5.5703979 -1.2047635 5.5261955 -36.721603 6.7751684
3122000000 -36.497379 -155.67909 -1.2136092 2.9172664 -1.2094833 2.9025815 -37.156845 5.9090323
3123000000 -36.648357 -160.72115 -1.2074915 0.27853012 -1.2119815 0.23802108 -36.988205 6.5569077
3124000000 -37.34203 -165.46883 -1.2086047 -2.3720839 -1.2096165 -2.4153104 -36.860283 6.6829357
3125000000 -37.601318 -169.88655 -1.2120013 -5.0367446 -1.211239 -5.0811296 -36.598373 8.8557644
3126000000 -37.677986 -176.4268 -1.2133925 -7.6908889 -1.2110348 -7.7113571 -36.875839 11.42703
3127000000 -38.320923 177.86807 -1.2139995 -10.355895 -1.2086201 -10.364312 -36.878323 11.727845
3128000000 -38.7882 173.46223 -1.2130766 -12.970886 -1.2092602 -12.990843 -37.024654 12.858033
3129000000 -39.043064 165.34604 -1.2115158 -15.623578 -1.2094791 -15.657084 -36.902641 15.696047
3130000000 -39.416294 158.90663 -1.2168148 -18.287025 -1.2082077 -18.317869 -36.708805 15.625202
3131000000 -40.192112 150.71667 -1.2133005 -20.920746 -1.2113512 -20.948563 -36.82412 16.034737
3132000000 -40.524494 144.62602 -1.212309 -23.594671 -1.2086488 -23.621222 -36.384132 17.921064
3133000000 -40.707138 135.31169 -1.2133467 -26.228378 -1.2106102 -26.25333 -36.644104 18.422157
3134000000 -41.27264 128.40195 -1.2123716 -28.878063 -1.2099997 -28.917717 -36.041073 20.127586
3135000000 -41.58305 123.6595 -1.2166065 -31.549229 -1.2133648 -31.54652 -36.331669 18.577906
3136000000 -41.124138 112.26525 -1.2121638 -34.191998 -1.2113303 -34.222317 -36.057404 18.111183
3137000000 -41.479973 107.43577 -1.215441 -36.836651 -1.2116704 -36.832783 -36.015621 19.174458
3138000000 -41.424427 93.879654 -1.2131296 -39.47324 -1.212387 -39.504452 -35.444107 20.94696
3139000000 -41.572586 85.669418 -1.2181942 -42.161579 -1.2090209 -42.153419 -35.546066 18.298477
3140000000 -41.265125 79.317642 -1.2138848 -44.79034 -1.212899 -44.807945 -35.240852 20.224483
3141000000 -41.685196 70.295166 -1.2154988 -47.460575 -1.2103236 -47.450768 -35.343578 17.319382
3142000000 -41.080227 64.148895 -1.2139679 -50.093922 -1.2121023 -50.102558 -35.380737 18.824854
3143000000 -40.702065 56.268139 -1.2141676 -52.73999 -1.2127402 -52.763294 -34.973202 16.886204
3144000000 -40.454208 54.860355 -1.2163918 -55.37635 -1.2114091 -55.422421 -34.875221 17.724766
3145000000 -40.311234 42.481899 -1.2159137 -58.062134 -1.2147117 -58.06311 -35.072353 14.805758
3146000000 -39.741608 41.013702 -1.2159729 -60.665524 -1.2200773 -60.701565 -34.922226 15.875747
3147000000 -39.098656 34.897789 -1.2148801 -63.334282 -1.2144994 -63.369087 -34.83242 14.260412
3148000000 -39.4659 25.442545 -1.2170841 -65.985062 -1.2145877 -66.032021 -34.872089 13.499423
3149000000 -38.806232 24.006292 -1.2165726 -68.65213 -1.2184817 -68.653732 -35.273449 11.161976
3150000000 -38.774338 17.498312 -1.2190558 -71.295982 -1.2162982 -71.295525 -34.642677 11.959518
3151000000 -38.533493 12.286742 -1.2189012 -73.944916 -1.213866 -73.952095 -34.820892 9.7577343
3152000000 -38.517319 9.8066282 -1.2168829 -76.594521 -1.2136434 -76.577026 -34.865974 8.2457514
3153000000 -38.537579 2.3195307 -1.2151126 -79.217781 -1.2151349 -79.281044 -34.678753 7.3908753
3154000000 -38.287472 -2.2752626 -1.2176217 -81.880203 -1.2166575 -81.891998 -35.191521 6.9319854
3155000000 -38.142719 -5.865675 -1.2154026 -84.540848 -1.2173773 -84.554741 -34.912422 4.5948653
3156000000 -37.867893 -11.34684 -1.2190331 -87.21096 -1.2169659 -87.186829 -35.302883 4.2883673
3157000000 -37.959549 -18.427805 -1.2201027 -89.868645 -1.2144178 -89.857185 -35.247334 2.7331505
3158000000 -38.19762 -22.656107 -1.2205164 -92.490334 -1.2169083 -92.513298 -34.979374 3.1732371
3159000000 -37.694794 -25.298134 -1.2198421 -95.144318 -1.2189358 -95.140411 -35.308289 0.49488136
3160000000 -37.440804 -27.850599 -1.218966 -97.791985 -1.2177436 -97.798828 -35.704102 -2.6092145
3161000000 -37.484921 -34.612228 -1.218454 -100.43352 -1.2150729 -100.47179 -35.608913 -1.8688476
3162000000 -37.475407 -39.190823 -1.224712 -103.09119 -1.2147229 -103.11129 -35.697315 -3.0384026
3163000000 -37.46574 -43.031963 -1.2181027 -105.7461 -1.2200032 -105.76756 -35.768044 -5.5327058
3164000000 -37.464294 -44.272682 -1.2194911 -108.39959 -1.2176552 -108.39814 -36.03759 -7.6948786
3165000000 -37.194191 -53.117828 -1.2195683 -111.03445 -1.2191232 -111.0228 -36.294991 -6.5566664
3166000000 -37.205551 -57.520584 -1.2215922 -113.67612 -1.2180551 -113.71687 -36.386787 -5.5335822
3167000000 -36.998493 -59.572899 -1.2178413 -116.32778 -1.2148763 -116.3568 -36.802895 -9.090765
3168000000 -37.459671 -65.55909 -1.2206913 -118.99266 -1.2201191 -119.00948 -36.864479 -9.3123922
3169000000 -37.193027 -69.051544 -1.2203677 -121.63711 -1.2201434 -121.62059 -37.159946 -10.413305
3170000000 -37.332275 -70.794724 -1.2212982 -124.30251 -1.2157359 -124.30357 -37.282635 -12.193423
3171000000 -37.250088 -75.709213 -1.2191565 -126.92696 -1.2182997 -126.959 -37.773136 -9.5690632
3172000000 -37.196674 -82.414238 -1.2186246 -129.57089 -1.215116 -129.61884 -38.072124 -10.913327
3173000000 -37.600262 -83.077057 -1.2260029 -132.23991 -1.2217362 -132.2567 -38.410141 -10.685347
3174000000 -37.755707 -88.495399 -1.222724 -134.87727 -1.2178543 -134.88634 -38.708809 -12.257579
3175000000 -37.807106 -91.375908 -1.2246873 -137.54193 -1.2181387 -137.56422 -39.147491 -11.49318
3176000000 -37.956173 -94.50869 -1.2205185 -140.19839 -1.2179365 -140.21696 -39.603008 -10.411281
3177000000 -37.804886 -98.356041 -1.2212774 -142.827 -1.2195421 -142.85135 -40.019169 -10.625073
3178000000 -38.22398 -102.45488 -1.2203845 -145.47202 -1.2221937 -145.49417 -40.36742 -7.0682278
3179000000 -38.543922 -108.38676 -1.2195206 -148.16338 -1.218359 -148.13792 -40.599636 -9.7592106
3180000000 -38.932705 -112.49956 -1.2266281 -150.79266 -1.2182384 -150.80492 -40.952744 -3.1392422
3181000000 -38.976818 -115.18198 -1.2217757 -153.43253 -1.2177625 -153.46991 -41.490353 -0.94204885
3182000000 -39.683151 -121.66283 -1.2238091 -156.08992 -1.2192899 -156.09805 -41.264252 -0.53357935
3183000000 -40.061142 -124.71175 -1.2212224 -158.74583 -1.2197293 -158.7438 -41.390965 7.2202706
3184000000 -40.913403 -126.95069 -1.2219337 -161.39603 -1.220644 -161.42203 -41.836567 6.1082764
3185000000 -40.379005 -132.80707 -1.2246591 -164.00014 -1.2200468 -164.07184 -42.483284 11.930628
3186000000 -41.858067 -140.74634 -1.221421 -166.67554 -1.2191411 -166.69139 -42.546501 13.306849
3187000000 -41.597401 -141.2803 -1.2258687 -169.32521 -1.2239293 -169.36516 -41.900002 22.578106
3188000000 -42.272869 -150.48036 -1.2262748 -171.99472 -1.2218199 -172.00229 -42.10004 21.061567
3189000000 -43.328201 -163.13531 -1.2234585 -174.64148 -1.2234091 -174.65486 -42.071735 28.050447
3190000000 -43.324249 -166.76746 -1.2242912 -177.28026 -1.2208569 -177.31406 -41.622154 30.442539
3191000000 -43.968616 -175.87209 -1.2240638 -179.96381 -1.2259703 -179.96098 -41.081707 33.810974
3192000000 -44.179825 174.4872 -1.2255855 177.40903 -1.22218 177.3979 -39.911961 35.421341
3193000000 -44.390625 164.58939 -1.2252896 174.75673 -1.2208086 174.72597 -39.848621 37.794678
3194000000 -44.927929 161.90128 -1.227151 172.08989 -1.2223371 172.08823 -39.315418 39.047413
3195000000 -44.430954 146.92914 -1.2269193 169.48799 -1.2233895 169.44614 -39.029469 38.47155
3196000000 -44.200714 132.90997 -1.2246138 166.79837 -1.2261735 166.77646 -39.021824 42.472919
3197000000 -43.592152 129.06844 -1.225579 164.14534 -1.2217135 164.15926 -38.266243 42.57465
3198000000 -44.141106 117.33375 -1.2256057 161.49271 -1.2257018 161.48256 -38.508057 41.650429
3199000000 -42.936344 106.51403 -1.2232996 158.8634 -1.2236335 158.85104 -37.75153 38.230659
3200000000 -42.373463 102.07578 -1.2236708 156.19174 -1.221588 156.19437 -37.114796 40.392735
3201000000 -42.591152 96.008301 -1.2280079 153.5461 -1.2267981 153.54773 -36.848213 41.454212
3202000000 -41.961815 92.198143 -1.2289157 150.92998 -1.2242707 150.89972 -36.683151 42.148529
3203000000 -41.303192 81.976357 -1.2271397 148.25127 -1.2257218 148.24318 -36.530003 39.749557
3204000000 -41.865234 78.315277 -1.2311733 145.61273 -1.227481 145.57832 -36.331738 37.417076
3205000000 -40.838398 74.764236 -1.2309846 142.94376 -1.2213308 142.9304 -35.819798 36.972321
3206000000 -39.743622 66.151436 -1.2287738 140.29727 -1.2268479 140.30708 -35.176983 36.427536
3207000000 -39.620033 60.033806 -1.2293372 137.66299 -1.2306148 137.60454 -35.294823 32.497707
3208000000 -40.127377 54.452999 -1.2321566 135.01607 -1.2277023 134.96283 -35.292534 32.205952
3209000000 -39.090858 49.232388 -1.2278293 132.35648 -1.2297877 132.33299 -35.023178 31.263971
3210000000 -38.27824 43.120731 -1.2257493 129.69296 -1.2277558 129.68767 -34.588497 29.938271
3211000000 -38.71452 41.564846 -1.230122 127.03741 -1.2268589 127.05536 -34.729763 28.542439
3212000000 -38.054718 36.384136 -1.2293472 124.39149 -1.2279968 124.38338 -34.435303 28.382696
3213000000 -38.208069 29.924873 -1.2315726 121.74078 -1.2276891 121.72643 -34.534836 24.889608
3214000000 -38.051064 26.170769 -1.2276119 119.10635 -1.2285314 119.07447 -34.071949 23.757343
3215000000 -37.810158 20.891964 -1.2313468 116.47574 -1.2273347 116.40485 -34.24374 20.77284
3216000000 -37.241867 17.844515 -1.2280831 113.8176 -1.230009 113.82095 -34.119324 20.016783
3217000000 -37.221775 13.201142 -1.2297388 111.14618 -1.2281016 111.14094 -33.906052 17.730003
3218000000 -37.574162 10.110629 -1.235345 108.51128 -1.2306718 108.51112 -33.891033 17.964697
3219000000 -37.130177 4.9196835 -1.2287546 105.82545 -1.2250987 105.85846 -33.945133 14.314247
3220000000 -36.903862 3.5786848 -1.229071 103.21739 -1.228443 103.19243 -33.660603 12.684769
3221000000 -36.309101 -3.3427498 -1.2314355 100.53901 -1.2294053 100.52258 -33.929634 12.267051
3222000000 -36.888035 -7.2496176 -1.2373037 97.927719 -1.2268479 97.865776 -33.740856 11.020927
3223000000 -36.477627 -10.907859 -1.2319425 95.276581 -1.2302357 95.234009 -33.974407 9.0454941
3224000000 -36.591721 -15.846106 -1.2289277 92.602295 -1.2297474 92.566238 -33.915367 6.1216717
3225000000 -36.338158 -17.037313 -1.2328498 89.96489 -1.2299767 89.951553 -33.914715 5.6990309
3226000000 -36.499268 -23.564156 -1.2330767 87.318718 -1.2307566 87.273712 -34.021027 6.0629249
3227000000 -36.490677 -26.104486 -1.2317005 84.656082 -1.234525 84.635292 -34.223694 2.382134
3228000000 -36.338478 -29.041298 -1.2325073 81.985283 -1.2315359 82.003761 -34.32724 1.401015
3229000000 -36.052471 -32.704357 -1.2324634 79.357262 -1.2280065 79.373863 -34.369354 -0.4409371
3230000000 -36.123844 -33.701672 -1.2314682 76.720299 -1.2307656 76.704491 -34.749233 -2.9067299
3231000000 -36.419804 -39.019257 -1.2341187 74.046326 -1.2308333 74.047653 -34.874435 -3.5501311
3232000000 -36.545223 -43.397327 -1.2361408 71.40226 -1.2281452 71.404282 -34.748585 -5.8696685
3233000000 -36.686951 -47.841202 -1.2343637 68.752594 -1.2363989 68.74971 -34.93137 -6.043478
3234000000 -36.321335 -48.943092 -1.2311416 66.109726 -1.2317775 66.10923 -35.148132 -6.9767904
3235000000 -36.33181 -57.097042 -1.2316668 63.47562 -1.2298959 63.456001 -35.44965 -7.3571301
3236000000 -36.733818 -57.14394 -1.2351764 60.815083 -1.2282397 60.832596 -35.805527 -10.214899
3237000000 -37.045185 -61.660278 -1.2310402 58.150982 -1.230823 58.147148 -36.104923 -10.319561
3238000000 -37.506355 -63.604382 -1.2320855 55.514404 -1.2299495 55.495358 -36.488594 -14.215531
3239000000 -37.410122 -67.496429 -1.2333724 52.877247 -1.2317909 52.822784 -36.909908 -10.396965
3240000000 -37.714767 -70.554749 -1.2324555 50.225288 -1.2334894 50.200031 -37.465233 -13.023455
3241000000 -38.105968 -76.253677 -1.2280182 47.550331 -1.2327446 47.53886 -37.78273 -12.282395
3242000000 -38.405666 -79.334435 -1.2317827 44.907131 -1.2340919 44.873333 -38.214512 -14.3351
3243000000 -38.756237 -82.186859 -1.2370638 42.250931 -1.2306615 42.240101 -38.954445 -14.514888
3244000000 -39.198887 -86.23571 -1.2327487 39.600376 -1.2323754 39.604893 -39.185375 -13.769062
3245000000 -39.640091 -90.594345 -1.2367874 36.958916 -1.2316153 36.937229 -39.801273 -10.546013
3246000000 -39.98056 -93.293915 -1.2294424 34.325073 -1.2301238 34.287601 -40.604969 -12.443233
3247000000 -40.268562 -97.996727 -1.2366594 31.675362 -1.2309681 31.629944 -40.993572 -7.9140439
3248000000 -40.88607 -97.41748 -1.2362902 29.008343 -1.2346808 29.001719 -41.658188 -2.6463532
3249000000 -41.418221 -107.2683 -1.2328134 26.35 -1.2330509 26.350988 -42.278019 -2.9716401
3250000000 -42.290386 -117.66917 -1.2344128 23.716837 -1.2355133 23.704597 -42.505608 4.4833798
3251000000 -43.166534 -118.66137 -1.2360837 21.060957 -1.2283345 21.021061 -43.551716 3.452558
3252000000 -43.989979 -127.01489 -1.2364062 18.424013 -1.2324626 18.383226 -43.872005 11.403248
3253000000 -44.589413 -132.82883 -1.2367743 15.745833 -1.2314715 15.74589 -43.264256 21.642555
3254000000 -45.088314 -136.35057 -1.237819 13.094762 -1.2321484 13.106933 -43.757984 27.66984
3255000000 -46.025528 -157.04282 -1.2375405 10.447706 -1.2329079 10.445086 -43.261925 33.875484
3256000000 -46.537106 -168.39177 -1.2361487 7.805377 -1.2348775 7.7802019 -42.996643 37.977966
3257000000 -47.794968 177.34628 -1.2342219 5.1201453 -1.2346832 5.1646419 -42.956551 41.144077
3258000000 -47.56815 166.42476 -1.2319484 2.5191846 -1.2320323 2.5021656 -41.674961 43.080475
3259000000 -46.694271 145.49951 -1.237986 -0.12914628 -1.2340833 -0.15000919 -41.651539 52.834774
3260000000 -47.015697 134.62964 -1.2327402 -2.7850688 -1.2370931 -2.8344245 -40.68185 51.25861
3261000000 -47.274826 129.87495 -1.2425206 -5.4355817 -1.2359121 -5.4653029 -39.899883 55.442837
3262000000 -46.644516 118.63017 -1.2361144 -8.0798616 -1.2333436 -8.1200314 -39.380875 54.279285
3263000000 -44.226181 111.75489 -1.2328203 -10.749471 -1.234147 -10.777454 -38.962418 58.456947
3264000000 -43.923367 97.447617 -1.2351631 -13.401877 -1.2356461 -13.43664 -38.382965 59.731918
3265000000 -43.633495 90.775185 -1.234591 -16.054352 -1.2365379 -16.049383 -38.352741 55.443317
3266000000 -42.363804 85.868507 -1.2388022 -18.702364 -1.2354995 -18.711754 -37.072308 55.038681
3267000000 -42.250095 76.523262 -1.2340981 -21.324539 -1.2378751 -21.386002 -36.556641 55.018433
3268000000 -40.795471 68.549217 -1.2396885 -24.005634 -1.2378452 -24.024557 -36.183018 52.700485
3269000000 -40.205841 67.358879 -1.2372218 -26.636974 -1.244416 -26.653549 -35.778225 53.439556
3270000000 -39.739525 61.518299 -1.241725 -29.324879 -1.2369722 -29.318758 -35.254841 52.678436
3271000000 -39.404343 58.915485 -1.240397 -31.964197 -1.2388463 -31.997238 -34.915318 51.163143
3272000000 -38.848892 52.820164 -1.2419186 -34.598736 -1.2369217 -34.6124 -34.684948 50.024803
3273000000 -38.427387 49.583488 -1.2362245 -37.247993 -1.2409409 -37.275749 -34.496071 47.875076
3274000000 -37.671928 43.113293 -1.2399062 -39.896988 -1.2361553 -39.932472 -33.985317 45.10128
3275000000 -37.526211 40.701767 -1.2386005 -42.560471 -1.2392602 -42.557854 -33.636509 44.117302
3276000000 -36.759602 34.04229 -1.2414432 -45.193066 -1.2419366 -45.259232 -33.357727 42.268383
3277000000 -36.530472 30.997181 -1.2421557 -47.88974 -1.238186 -47.863049 -33.041332 42.055126
3278000000 -35.788921 28.312389 -1.2422767 -50.48941 -1.2351334 -50.515572 -32.905884 38.856083
3279000000 -35.899452 24.076782 -1.2410908 -53.159645 -1.2437806 -53.172531 -32.556831 36.757156
3280000000 -35.41206 20.233122 -1.2430403 -55.809711 -1.23686 -55.831455 -32.536896 36.860508
3281000000 -35.292091 17.65638 -1.2428176 -58.464603 -1.2416323 -58.459171 -32.232723 34.169003
3282000000 -34.897301 13.563673 -1.2429827 -61.095932 -1.2411193 -61.125938 -32.210957 32.937717
3283000000 -34.481319 9.9373922 -1.2423093 -63.729668 -1.2427449 -63.760433 -32.098045 30.597601
3284000000 -34.296329 6.9044127 -1.2408496 -66.391075 -1.2446704 -66.420364 -31.94714 28.467159
3285000000 -33.89109 2.3281386 -1.2468344 -69.060913 -1.2445 -69.072998 -31.875854 25.611399
3286000000 -33.703098 -0.67416734 -1.2422632 -71.698952 -1.245111 -71.74012 -31.67811 24.677965
3287000000 -33.71825 -3.8351138 -1.2443022 -74.367104 -1.2409223 -74.351097 -31.526176 21.588289
3288000000 -33.40556 -7.6190362 -1.2456335 -77.006012 -1.2413002 -77.012573 -31.444588 19.543114
3289000000 -33.062557 -9.7725105 -1.2458649 -79.638702 -1.2432729 -79.62368 -31.213428 17.456024
3290000000 -33.215706 -12.767264 -1.2473811 -82.271111 -1.2435335 -82.353523 -31.341593 16.267809
3291000000 -32.927021 -15.576226 -1.2450734 -84.949623 -1.2437454 -84.953026 -31.370609 15.604051
3292000000 -32.90263 -18.394445 -1.2492007 -87.59079 -1.2404383 -87.618073 -31.279497 12.012601
3293000000 -32.744373 -21.813997 -1.2446924 -90.261719 -1.2468944 -90.278618 -31.376383 11.610185
3294000000 -32.745197 -24.242456 -1.2468399 -92.899757 -1.2427866 -92.928581 -31.096733 9.3080654
3295000000 -32.591137 -27.109537 -1.2487631 -95.540062 -1.243468 -95.545403 -31.134855 6.7301369
3296000000 -32.658852 -30.158588 -1.2509743 -98.200478 -1.2427253 -98.20929 -31.369835 4.6873364
3297000000 -32.586674 -33.118069 -1.2477313 -100.83208 -1.2367885 -100.84139 -31.229862 1.0942829
3298000000 -32.431786 -36.290592 -1.2464584 -103.4878 -1.2470213 -103.49197 -31.381681 1.595132
3299000000 -32.630688 -37.873745 -1.2491485 -106.11762 -1.2465526 -106.15289 -31.430321 -1.9832395
3300000000 -32.720448 -41.217926 -1.2487258 -108.79585 -1.2490312 -108.77484 -31.411381 -3.3975611
3301000000 -32.458736 -43.744484 -1.2520286 -111.4381 -1.2439833 -111.42549 -31.689587 -4.9276738
3302000000 -32.616547 -45.561714 -1.2487303 -114.10148 -1.2434046 -114.10325 -31.877579 -6.8004565
3303000000 -32.813393 -48.843033 -1.248803 -116.7424 -1.2444749 -116.76812 -31.907991 -8.0123043
3304000000 -32.698166 -52.023533 -1.2496372 -119.35079 -1.2456656 -119.41251 -32.078896 -11.032501
3305000000 -32.738255 -53.649998 -1.2439998 -122.02731 -1.246734 -122.03405 -32.377949 -13.056017
3306000000 -32.924778 -56.83107 -1.2560034 -124.66653 -1.2466023 -124.72102 -32.759186 -13.927918
3307000000 -33.041424 -59.018852 -1.2508214 -127.30502 -1.2473025 -127.35109 -32.738228 -16.989321
3308000000 -33.192394 -62.647133 -1.248183 -129.98888 -1.2478262 -129.98381 -32.852219 -18.308277
3309000000 -33.586987 -64.678146 -1.254936 -132.62549 -1.2455504 -132.64836 -33.360939 -21.415825
3310000000 -33.598476 -68.469124 -1.2481781 -135.27156 -1.2494799 -135.3038 -33.707352 -24.004871
3311000000 -33.777271 -70.103233 -1.2523104 -137.93309 -1.2468096 -137.9532 -33.953411 -25.114895
3312000000 -34.030533 -72.794014 -1.2517775 -140.58676 -1.2457275 -140.60751 -34.380089 -26.303219
3313000000 -34.398838 -76.57962 -1.2487206 -143.22826 -1.247317 -143.26958 -34.567379 -27.600483
3314000000 -34.454731 -79.312149 -1.2520444 -145.8671 -1.2440795 -145.88786 -35.007095 -29.611397
3315000000 -34.593685 -83.213104 -1.2493218 -148.51292 -1.2430627 -148.55751 -35.37508 -30.874826
3316000000 -35.180767 -83.331116 -1.2534188 -151.17583 -1.2490498 -151.19438 -35.409016 -32.887909
3317000000 -35.427864 -89.512611 -1.2517042 -153.85193 -1.2434928 -153.85072 -36.051136 -35.572525
3318000000 -35.757351 -91.66188 -1.2527435 -156.48976 -1.2486057 -156.49875 -36.602398 -34.789478
3319000000 -35.843472 -95.76387 -1.2491603 -159.14119 -1.2476637 -159.15019 -37.282803 -35.441933
3320000000 -36.733646 -98.844116 -1.247 -161.79012 -1.2489684 -161.7825 -37.384933 -36.212784
3321000000 -36.84164 -100.00481 -1.2497456 -164.44174 -1.2455448 -164.45697 -38.399822 -35.292969
3322000000 -37.502068 -103.64839 -1.251935 -167.08356 -1.2472304 -167.08847 -39.580471 -37.618
3323000000 -37.763588 -105.1224 -1.2498106 -169.7179 -1.2477686 -169.75403 -40.205231 -38.186726
3324000000 -38.482132 -108.3463 -1.249155 -172.38843 -1.2510448 -172.40794 -40.815357 -39.343487
3325000000 -39.097664 -110.92455 -1.2491654 -175.04126 -1.2474778 -175.05237 -41.552277 -36.279293
3326000000 -39.908054 -112.65323 -1.2490592 -177.67171 -1.2497115 -177.68025 -42.890118 -35.420597
3327000000 -40.34729 -117.63069 -1.247565 179.68127 -1.2510689 179.64311 -43.297497 -32.433605
3328000000 -41.474869 -119.14456 -1.2518811 177.03442 -1.2510258 177.0041 -44.872208 -27.255529
3329000000 -42.84375 -120.83678 -1.2503097 174.36502 -1.25183 174.33295 -46.04871 -18.248041
3330000000 -43.355473 -120.81655 -1.2508321 171.7363 -1.2508787 171.68274 -47.009956 -8.1193628
3331000000 -45.808559 -114.94121 -1.2513572 169.06483 -1.2513741 169.02562 -47.315884 -3.0456624
3332000000 -46.940151 -118.52703 -1.2552097 166.38934 -1.2508752 166.40804 -46.921337 9.5013647
3333000000 -49.421967 -125.32166 -1.250067 163.78557 -1.2505817 163.7442 -46.899879 24.534662
3334000000 -50.878311 -101.89722 -1.253062 161.08746 -1.2518234 161.08684 -45.495216 32.658436
3335000000 -54.343098 -99.466064 -1.2469333 158.46611 -1.252854 158.45981 -44.821297 41.370956
3336000000 -55.206406 -66.839897 -1.2519467 155.82669 -1.2492213 155.79002 -43.552177 46.435955
3337000000 -54.843029 -35.167427 -1.249601 153.14333 -1.2472694 153.13095 -42.062763 46.635918
3338000000 -52.139999 -4.3795705 -1.2509871 150.51054 -1.2481036 150.48711 -40.833721 51.131729
3339000000 -49.465073 -11.33655 -1.2524488 147.88092 -1.2525473 147.84868 -40.383995 52.527027
3340000000 -46.571175 1.7263991 -1.2551523 145.20264 -1.2512827 145.19901 -39.436279 54.434185
3341000000 -44.894203 0.99279797 -1.2546675 142.5367 -1.2509408 142.55231 -38.690121 55.11573
3342000000 -43.998444 5.3544097 -1.2548186 139.91037 -1.2548193 139.90819 -37.785992 54.939713
3343000000 -42.163303 -6.7089934 -1.2562578 137.24638 -1.2517046 137.24553 -37.752499 53.119686
3344000000 -41.507599 -5.3636069 -1.2541004 134.58623 -1.2556151 134.61201 -36.963406 52.952705
3345000000 -39.829975 -4.5500374 -1.2526277 131.93257 -1.2515662 131.96175 -36.05648 50.869434
3346000000 -39.298935 -7.0981278 -1.255759 129.29961 -1.2553774 129.2905 -35.763752 50.821697
3347000000 -38.657017 -7.2933326 -1.2542076 126.64955 -1.2517195 126.65739 -35.237659 50.99437
3348000000 -37.79002 -13.033424 -1.2574233 124.00512 -1.2592289 123.98539 -34.885693 49.583725
3349000000 -37.207939 -12.610091 -1.2582605 121.35077 -1.2512723 121.36839 -34.428326 48.641953
3350000000 -37.041271 -15.109909 -1.2546824 118.71597 -1.2508224 118.67834 -33.975075 45.174644
3351000000 -36.084995 -19.460541 -1.2578396 116.04736 -1.2521229 116.03999 -33.834904 45.575348
3352000000 -35.785828 -20.431679 -1.2581688 113.39669 -1.2561084 113.38571 -33.515823 44.275757
3353000000 -35.662628 -24.447042 -1.2599794 110.75073 -1.2561768 110.73695 -33.40947 42.458138
3354000000 -35.044022 -24.30468 -1.2577688 108.12125 -1.2534541 108.10436 -32.773582 39.029968
3355000000 -34.719917 -26.878172 -1.2611978 105.44415 -1.2548199 105.44888 -32.695976 37.808887
3356000000 -34.323837 -30.905712 -1.2585756 102.81567 -1.2559459 102.78777 -32.780811 37.969204
3357000000 -34.117165 -33.123974 -1.2565184 100.13531 -1.2551918 100.12466 -32.514645 35.667164
3358000000 -34.070621 -35.819183 -1.2595587 97.492195 -1.2553117 97.473465 -32.180729 34.644211
3359000000 -33.65847 -39.811974 -1.258503 94.869164 -1.2571719 94.851723 -32.345043 32.968029
3360000000 -33.297333 -39.631886 -1.2599347 92.212013 -1.2600343 92.208633 -32.120537 29.823885
3361000000 -33.251091 -43.74234 -1.2580975 89.560555 -1.2623729 89.522583 -32.038483 29.363657
3362000000 -33.043034 -46.817753 -1.2600569 86.893784 -1.257148 86.898911 -31.734312 27.718008
3363000000 -32.909679 -47.923744 -1.2584718 84.281349 -1.2561111 84.251778 -31.712643 24.144733
3364000000 -32.873791 -51.873051 -1.2609704 81.618874 -1.2578112 81.595047 -31.743645 22.752031
3365000000 -32.840107 -53.972565 -1.2597604 78.949814 -1.2583995 78.957954 -31.61104 21.387022
3366000000 -32.580952 -57.619297 -1.2624261 76.307838 -1.2555288 76.295708 -31.619678 20.264652
3367000000 -32.333694 -59.274635 -1.2583926 73.664192 -1.2565267 73.633965 -31.579451 17.049917
3368000000 -32.54451 -63.137108 -1.2640834 70.992416 -1.2569201 70.991722 -31.671875 15.774118
3369000000 -32.427517 -66.350441 -1.2638007 68.361244 -1.2615916 68.352272 -31.755415 13.180515
3370000000 -32.087582 -70.512985 -1.2617577 65.721474 -1.2602295 65.661331 -31.543018 12.614131
3371000000 -32.352501 -71.141022 -1.2612344 63.053131 -1.2595718 63.07074 -31.638742 7.9488468
3372000000 -32.171455 -75.011536 -1.2629694 60.425564 -1.2601973 60.403461 -31.718349 6.7434406
3373000000 -32.273838 -76.602905 -1.2634693 57.752598 -1.2563974 57.720371 -31.977106 4.7219024
3374000000 -32.307381 -80.431206 -1.260096 55.095192 -1.2591671 55.101597 -31.841124 3.7829208
3375000000 -32.047852 -83.925423 -1.2624314 52.48597 -1.2590969 52.434639 -31.87672 2.6223578
3376000000 -32.231403 -86.820175 -1.2550999 49.839405 -1.2589045 49.785851 -31.938295 -0.24914663
3377000000 -32.186802 -90.396828 -1.2641308 47.193493 -1.2542325 47.155132 -32.118275 -1.8822051
3378000000 -32.356674 -93.542427 -1.2605613 44.530888 -1.263603 44.504406 -32.287621 -4.2236557
3379000000 -32.279095 -96.099548 -1.2603188 41.861305 -1.2612538 41.854198 -32.348198 -4.7146053
3380000000 -32.295513 -98.805542 -1.2689428 39.21542 -1.2625303 39.199772 -32.436558 -5.9638791
3381000000 -32.344208 -100.63833 -1.2603424 36.609566 -1.2613829 36.549042 -32.751808 -8.3053722
3382000000 -32.374451 -105.6809 -1.2641571 33.921928 -1.2620841 33.900116 -32.619179 -9.7009916
3383000000 -32.508026 -108.13153 -1.2596655 31.284431 -1.2595663 31.268002 -32.896713 -10.349125
3384000000 -32.440666 -111.44081 -1.2600859 28.616215 -1.2606994 28.613068 -32.968639 -11.987826
3385000000 -32.685101 -114.77768 -1.2620146 25.979696 -1.2618101 25.945103 -33.084896 -11.152974
3386000000 -32.847076 -117.36634 -1.2634195 23.31584 -1.2633052 23.297472 -33.323963 -15.007361
3387000000 -33.156139 -119.64771 -1.2635182 20.668566 -1.2585177 20.670307 -33.830917 -14.962604
3388000000 -33.387806 -125.05642 -1.2638371 18.010904 -1.2619935 18.003368 -33.884003 -15.901871
3389000000 -33.564087 -126.15881 -1.2610164 15.347662 -1.2626176 15.37061 -34.042549 -16.934813
3390000000 -33.788773 -128.88028 -1.2634784 12.761244 -1.2602786 12.71075 -34.52911 -17.764256
3391000000 -33.671356 -131.87251 -1.2597822 10.089729 -1.2633755 10.039475 -34.863224 -16.562588
3392000000 -34.109665 -136.34865 -1.2613324 7.4456115 -1.2629423 7.4148622 -34.902893 -19.087917
3393000000 -34.474499 -139.34068 -1.2606663 4.7855358 -1.2621939 4.7448521 -35.074944 -18.572449
3394000000 -35.174999 -142.13603 -1.2627167 2.1168709 -1.2586752 2.1167569 -35.759708 -19.962887
3395000000 -35.343296 -144.89403 -1.2595909 -0.52321821 -1.2626065 -0.54000205 -35.900539 -15.022576
3396000000 -35.934742 -148.70346 -1.2620194 -3.1571288 -1.2627794 -3.1968167 -36.330372 -17.075035
3397000000 -36.452293 -152.12369 -1.269138 -5.8354316 -1.2637446 -5.8590608 -36.334442 -18.149519
3398000000 -36.908493 -153.77867 -1.2685208 -8.5041952 -1.2621108 -8.520874 -36.419365 -12.770144
3399000000 -37.517273 -158.73586 -1.265411 -11.132764 -1.2613348 -11.139096 -37.201534 -13.806437
3400000000 -38.397156 -160.60672 -1.2633994 -13.782248 -1.2676605 -13.798518 -37.371208 -11.602252
3401000000 -38.81459 -165.52213 -1.2671326 -16.421404 -1.2581626 -16.4505 -37.81245 -8.5947523
3402000000 -39.550674 -170.87531 -1.266439 -19.088142 -1.2658336 -19.072002 -38.030376 -7.3342786
3403000000 -40.257259 -173.17252 -1.2687372 -21.739723 -1.2612209 -21.737881 -38.190586 -5.5664682
3404000000 -41.359024 178.90749 -1.2644899 -24.376802 -1.261656 -24.388128 -38.511719 -1.2643514
3405000000 -42.45052 176.45284 -1.2636633 -27.036245 -1.2629908 -27.022974 -38.598858 2.8675694
3406000000 -43.553516 168.49698 -1.2634766 -29.687046 -1.2629652 -29.694244 -38.945408 4.1820493
3407000000 -44.937283 163.29448 -1.2662096 -32.324986 -1.2683115 -32.347534 -38.937023 4.9946346
3408000000 -47.028831 153.22061 -1.2656929 -34.983814 -1.2612064 -34.999489 -38.403568 8.1378946
3409000000 -47.212318 136.60442 -1.2693311 -37.671745 -1.2628952 -37.637753 -38.297741 12.084778
3410000000 -49.172363 126.74442 -1.2661867 -40.281979 -1.2593251 -40.279819 -37.977505 15.090739
3411000000 -50.660801 112.70441 -1.2668017 -42.930798 -1.263317 -42.943626 -38.154171 15.870072
3412000000 -51.14109 94.499367 -1.2665553 -45.549709 -1.2654428 -45.614876 -38.163258 18.92235
3413000000 -50.731155 60.945198 -1.2684474 -48.229004 -1.2695291 -48.258293 -37.817104 21.273891
3414000000 -50.0014 46.6917 -1.2671441 -50.904316 -1.2655973 -50.899479 -37.907013 21.022293
3415000000 -49.39806 35.082314 -1.2651982 -53.510532 -1.2625654 -53.566147 -37.296871 22.168455
3416000000 -46.256989 19.228292 -1.2643753 -56.171585 -1.2666174 -56.214298 -36.897964 23.53615
3417000000 -46.163982 16.817549 -1.2676398 -58.844231 -1.2676203 -58.862209 -37.15659 27.405018
3418000000 -44.862846 8.0933151 -1.2666178 -61.47908 -1.263792 -61.48716 -36.751064 26.022041
3419000000 -43.342632 -1.7723498 -1.2664795 -64.144508 -1.2646579 -64.149933 -36.16011 26.814461
3420000000 -42.589619 -5.5850163 -1.2657824 -66.779434 -1.2683573 -66.803169 -35.950417 27.673573
3421000000 -41.680202 -10.074975 -1.2727624 -69.413345 -1.2620229 -69.445595 -35.647625 28.084513
3422000000 -41.385761 -15.148239 -1.2717218 -72.112656 -1.2669553 -72.103287 -35.586384 27.925301
3423000000 -40.399715 -20.833858 -1.2692299 -74.751343 -1.2669874 -74.731857 -35.338852 27.337238
3424000000 -39.437149 -24.721745 -1.2678033 -77.360588 -1.26695 -77.401527 -35.448547 26.437454
3425000000 -39.395786 -31.342646 -1.2707825 -80.029091 -1.2628001 -80.048355 -35.322701 24.663607
3426000000 -38.330734 -32.22084 -1.2726798 -82.694954 -1.2667401 -82.68322 -35.075233 26.127377
3427000000 -38.164867 -38.453808 -1.2709351 -85.323105 -1.2684602 -85.327751 -34.959888 25.711479
3428000000 -37.716591 -42.495514 -1.2687961 -87.997238 -1.2668991 -88.047989 -34.812428 23.186144
3429000000 -37.359528 -45.510788 -1.2674377 -90.629982 -1.2719102 -90.634041 -34.893875 22.322176
3430000000 -36.77721 -49.464001 -1.2685521 -93.275536 -1.2637931 -93.289139 -34.41983 21.110956
3431000000 -36.801842 -54.839813 -1.2707582 -95.932991 -1.2690777 -95.930695 -34.219997 19.598806
3432000000 -36.31485 -57.918217 -1.2712348 -98.581413 -1.2711158 -98.617783 -34.045528 18.271996
3433000000 -36.206108 -61.942753 -1.2708428 -101.23109 -1.2703847 -101.23808 -33.820621 18.632057
3434000000 -35.580528 -65.13398 -1.2743884 -103.89168 -1.2698481 -103.90853 -33.75684 15.741967
3435000000 -35.523308 -69.751488 -1.2720923 -106.53334 -1.2719258 -106.54625 -34.031845 14.101345
3436000000 -35.110775 -72.877663 -1.2751195 -109.1808 -1.2721521 -109.20719 -33.712208 14.245739
3437000000 -34.604992 -76.668579 -1.2726544 -111.84338 -1.267689 -111.85985 -33.668919 12.261585
3438000000 -34.653622 -78.855331 -1.2711834 -114.47009 -1.2705373 -114.48788 -33.683434 13.865499
3439000000 -34.574268 -82.887917 -1.2723057 -117.14194 -1.270259 -117.17669 -33.537804 11.179163
3440000000 -34.515858 -85.212318 -1.2735772 -119.75623 -1.2690686 -119.81467 -33.432331 10.117154
3441000000 -34.040909 -89.934364 -1.2762436 -122.434 -1.2674793 -122.43194 -33.161137 8.1449089
3442000000 -33.875042 -93.832085 -1.2708642 -125.08158 -1.2732923 -125.11482 -33.523228 7.6532927
3443000000 -34.008183 -96.675133 -1.2749432 -127.71274 -1.2713953 -127.72781 -33.31192 7.5665622
3444000000 -34.115498 -98.306427 -1.2736602 -130.36882 -1.273319 -130.41585 -33.426922 6.6806536
3445000000 -33.607437 -103.11066 -1.273563 -133.04077 -1.270027 -133.02573 -33.471889 4.932507
3446000000 -33.690979 -106.38882 -1.2741468 -135.68983 -1.2751265 -135.69731 -33.277576 5.4565902
3447000000 -33.823692 -110.19558 -1.276974 -138.34247 -1.2752564 -138.34055 -33.413418 3.7716253
3448000000 -33.503536 -114.01969 -1.271207 -140.98242 -1.2748588 -141.00867 -33.40131 2.8578112
3449000000 -33.713848 -116.54177 -1.2743773 -143.6416 -1.2746738 -143.65089 -33.618549 1.5685393
3450000000 -33.745216 -120.43207 -1.2784483 -146.28181 -1.2721486 -146.2979 -33.387363 2.4102812
3451000000 -33.64994 -124.37514 -1.2765391 -148.94966 -1.2737334 -148.96138 -33.566788 1.2757661
3452000000 -33.590904 -127.17797 -1.2747401 -151.57036 -1.2691425 -151.60435 -33.665199 2.4234514
3453000000 -33.830189 -130.9897 -1.2785721 -154.23627 -1.2712133 -154.25157 -33.692394 1.5610344
3454000000 -33.911552 -134.34743 -1.2697642 -156.88834 -1.2724018 -156.85468 -34.188915 -0.53330606
3455000000 -34.046314 -140.21367 -1.2753681 -159.53949 -1.2758477 -159.57556 -33.801411 -0.24050671
3456000000 -34.177898 -142.00371 -1.2792778 -162.16464 -1.2715144 -162.20584 -33.979836 0.15579838
3457000000 -34.524216 -146.35074 -1.2777076 -164.8425 -1.2741541 -164.86665 -34.081757 0.56217277
3458000000 -34.311878 -149.32231 -1.2743617 -167.48164 -1.2723564 -167.47539 -33.986534 0.40488172
3459000000 -34.749184 -155.77483 -1.2761092 -170.11563 -1.2750852 -170.15414 -34.303314 -1.5617684
3460000000 -34.915653 -158.41905 -1.2756703 -172.78482 -1.2763307 -172.80177 -34.319893 1.3855805
3461000000 -35.171429 -161.33446 -1.2754719 -175.39668 -1.2789828 -175.43108 -34.546047 2.198787
3462000000 -35.379009 -167.14027 -1.2751845 -178.0596 -1.2767489 -178.10953 -34.615883 3.304924
3463000000 -35.802902 -172.35089 -1.2783062 179.26059 -1.271523 179.22853 -34.60556 3.1804414
3464000000 -35.7542 -177.22063 -1.2775255 176.60123 -1.2756567 176.59521 -34.693249 4.1709614
3465000000 -35.998291 179.02467 -1.2783799 173.98428 -1.2757709 173.95874 -34.665607 4.4231734
3466000000 -36.43008 172.40749 -1.2799813 171.32141 -1.2766923 171.29219 -34.642925 5.9011493
3467000000 -36.415539 167.27924 -1.2760134 168.68033 -1.277611 168.6458 -34.469414 5.7579746
3468000000 -36.775299 162.69412 -1.2786756 166.02412 -1.2752446 165.99384 -35.101669 7.1208954
3469000000 -36.877247 159.08435 -1.2802351 163.36 -1.2730452 163.35535 -34.715813 6.9586263
3470000000 -37.48521 150.17465 -1.2734241 160.71545 -1.2790481 160.69308 -34.875931 7.4219618
3471000000 -37.37532 144.98299 -1.2764853 158.02678 -1.2764781 158.06244 -34.852695 10.273392
3472000000 -37.607086 140.21172 -1.2757567 155.42308 -1.278873 155.39009 -34.873234 10.404058
3473000000 -37.707161 133.71214 -1.2829626 152.76695 -1.2780457 152.73665 -34.681381 9.9873161
3474000000 -38.223034 123.90999 -1.2750317 150.12375 -1.2802198 150.10025 -34.689728 10.796212
3475000000 -38.402058 122.19341 -1.2814946 147.47287 -1.2790112 147.43184 -34.637127 9.3349695
3476000000 -38.27993 114.22868 -1.280763 144.81517 -1.2770048 144.79167 -34.394314 10.222841
3477000000 -38.451302 107.07797 -1.2791871 142.13976 -1.2800963 142.14432 -34.490162 12.672409
3478000000 -38.447956 101.88339 -1.2804871 139.52249 -1.280179 139.48926 -34.428104 12.139954
3479000000 -38.800354 93.909363 -1.2820892 136.86134 -1.2792063 136.82626 -33.885303 11.902246
3480000000 -38.812592 88.369453 -1.2798274 134.21237 -1.2806714 134.1808 -34.272423 11.454687
3481000000 -38.301056 82.213387 -1.2800963 131.54759 -1.2799476 131.53217 -33.932102 11.72065
3482000000 -38.719013 76.629616 -1.2825115 128.91156 -1.2770609 128.90364 -33.89325 10.797201
3483000000 -38.285736 68.191711 -1.2810329 126.26405 -1.2830794 126.26202 -33.682465 13.121072
3484000000 -38.285103 60.806805 -1.2803067 123.61803 -1.2773647 123.58298 -33.700874 12.259495
3485000000 -37.956093 55.597248 -1.2815955 120.96585 -1.2760245 120.94643 -33.508568 11.133896
3486000000 -38.301594 50.419846 -1.2833037 118.28971 -1.2801561 118.33006 -33.570049 11.543167
3487000000 -37.974655 40.08083 -1.2813938 115.65677 -1.2783781 115.63454 -33.370335 10.35119
3488000000 -37.935028 34.64941 -1.2782277 113.03486 -1.2793345 112.98243 -33.105106 9.4487391
3489000000 -37.385277 28.063162 -1.2844232 110.38388 -1.2799181 110.37756 -33.026325 9.137785
3490000000 -37.623371 22.48665 -1.2836766 107.70529 -1.2818183 107.72084 -33.019638 8.1567049
3491000000 -37.229099 16.118587 -1.2850713 105.06057 -1.2784042 105.05598 -32.827076 9.0216532
3492000000 -37.097954 9.2410231 -1.2835716 102.41433 -1.2800108 102.43145 -32.666496 6.7148581
3493000000 -36.770477 4.1731992 -1.2857978 99.772743 -1.2809292 99.736374 -32.390347 5.823338
3494000000 -36.699154 1.0414666 -1.2847281 97.151512 -1.2780592 97.101692 -32.460522 5.737658
3495000000 -36.332901 -7.1259217 -1.2816093 94.467789 -1.2819316 94.45842 -32.262657 5.1730213
3496000000 -36.047764 -12.336952 -1.2835904 91.811523 -1.2838854 91.79287 -32.288055 3.3007722
3497000000 -35.47052 -16.578697 -1.2834829 89.164772 -1.2797366 89.165497 -31.83456 2.4138598
3498000000 -35.515816 -21.27849 -1.2839251 86.525574 -1.2817293 86.500946 -31.830572 1.0266342
3499000000 -35.058041 -27.190228 -1.2827959 83.860237 -1.2851683 83.856621 -31.783264 0.28635454
3500000000 -35.281818 -32.244167 -1.2860707 81.237213 -1.2861637 81.191055 -31.744932 -0.5368337
3501000000 -34.709541 -35.16713 -1.2816793 78.56678 -1.2869779 78.547859 -31.669195 -0.90733075
3502000000 -34.649151 -41.714993 -1.2854697 75.949638 -1.2865181 75.890991 -31.713507 -2.6857083
3503000000 -34.468266 -44.604855 -1.2850468 73.267029 -1.2857836 73.25386 -31.557316 -3.1289554
3504000000 -34.179565 -48.318275 -1.2888929 70.617119 -1.2835674 70.600861 -31.675102 -3.7593045
3505000000 -33.924675 -52.098541 -1.2871325 67.965523 -1.2870727 67.945053 -31.506855 -5.0619526
3506000000 -33.989155 -56.155758 -1.2928185 65.312759 -1.2820948 65.312691 -31.437973 -6.1425939
3507000000 -33.787582 -60.718639 -1.2859298 62.667278 -1.28661 62.667377 -31.482626 -6.3712916
3508000000 -33.533581 -65.649857 -1.2853698 59.999676 -1.2840983 60.009415 -31.446115 -7.8418264
3509000000 -33.370735 -69.758057 -1.2817571 57.36919 -1.2864349 57.338669 -31.631979 -8.3791599
3510000000 -33.319191 -72.817322 -1.2868502 54.748219 -1.2864829 54.691093 -31.474968 -8.2589931
3511000000 -33.136208 -75.588074 -1.2869675 52.070354 -1.2841672 52.051556 -31.494637 -9.6622705
3512000000 -33.255531 -79.020042 -1.2886083 49.439137 -1.2831615 49.384022 -31.596846 -10.854889
3513000000 -33.285782 -83.270477 -1.2851576 46.779686 -1.2898166 46.753819 -31.666962 -11.442636
3514000000 -33.47184 -86.944244 -1.2872536 44.120148 -1.2857676 44.104176 -31.666714 -13.11213
3515000000 -33.272011 -89.556427 -1.2888423 41.481865 -1.2846283 41.435741 -31.793177 -12.314195
3516000000 -33.265343 -93.916695 -1.2867008 38.837025 -1.2871513 38.81271 -32.037735 -13.942067
3517000000 -33.187485 -98.691521 -1.289433 36.176308 -1.2866131 36.163643 -32.138187 -13.898698
3518000000 -33.27803 -102.33507 -1.2871481 33.547028 -1.2854366 33.501434 -32.155586 -14.12263
3519000000 -33.525009 -106.45208 -1.2926784 30.873207 -1.2828523 30.866165 -32.314625 -15.595197
3520000000 -33.496216 -109.76845 -1.2893286 28.252254 -1.2849143 28.211069 -32.38522 -14.900047
3521000000 -33.586891 -114.02698 -1.2875134 25.557983 -1.2880358 25.556911 -32.651825 -14.708003
3522000000 -33.672775 -117.34039 -1.2892613 22.921137 -1.2900932 22.900923 -32.815582 -16.302465
3523000000 -33.95845 -120.91358 -1.2882819 20.276367 -1.2879845 20.259647 -32.774914 -15.710872
3524000000 -33.675434 -128.30818 -1.2868115 17.628977 -1.2864926 17.586922 -32.893223 -17.040722
3525000000 -34.103268 -128.92595 -1.2889141 14.963616 -1.2855291 14.974565 -33.399475 -17.193821
3526000000 -34.205612 -136.04893 -1.2894511 12.335954 -1.2799854 12.294688 -33.334408 -16.721674
3527000000 -34.412666 -139.04303 -1.2850457 9.6736574 -1.2869811 9.6616554 -33.513302 -19.232098
3528000000 -34.363106 -143.45528 -1.2865016 7.0287542 -1.2883568 6.9943581 -33.497276 -17.52594
3529000000 -34.878086 -147.44608 -1.2935187 4.3879547 -1.2864436 4.3588896 -33.621681 -18.74506
3530000000 -34.55407 -153.52353 -1.2908102 1.7289718 -1.2902416 1.720709 -33.921383 -18.216892
3531000000 -34.642132 -157.22197 -1.2897288 -0.90642726 -1.2892334 -0.93498951 -34.075581 -17.104425
3532000000 -35.086624 -162.41425 -1.2893519 -3.6084924 -1.2897539 -3.6010418 -34.244328 -17.638397
3533000000 -35.104145 -166.96616 -1.2866929 -6.2140069 -1.2875434 -6.2401938 -34.221104 -20.070169
3534000000 -35.459492 -168.32066 -1.2920945 -8.8728447 -1.2871294 -8.8894882 -34.734776 -18.580921
3535000000 -35.527699 -174.1015 -1.2836374 -11.513616 -1.2920084 -11.555035 -34.864197 -16.972534
3536000000 -35.721123 -179.43555 -1.2876812 -14.176514 -1.2918868 -14.159563 -34.900238 -19.472134
3537000000 -35.717964 177.99451 -1.2922294 -16.804684 -1.2887591 -16.859896 -34.720589 -16.527937
3538000000 -36.193703 172.04704 -1.2939516 -19.468744 -1.2901727 -19.504721 -35.08918 -16.641203
3539000000 -36.414051 166.03906 -1.2941529 -22.126171 -1.2893924 -22.174221 -35.202637 -17.715158
3540000000 -36.13858 162.80757 -1.2914141 -24.777527 -1.2880309 -24.77545 -35.142799 -15.081597
3541000000 -36.868473 158.25288 -1.2905092 -27.426876 -1.2908413 -27.423786 -35.176022 -15.222611
3542000000 -36.471252 152.87523 -1.2963116 -30.046234 -1.2896338 -30.093552 -35.336281 -15.307192
3543000000 -36.99297 148.03563 -1.2962652 -32.716888 -1.2876116 -32.745216 -35.422955 -16.39522
3544000000 -37.470428 142.69873 -1.2928265 -35.390099 -1.294148 -35.37413 -35.226521 -15.13728
3545000000 -37.773285 136.05507 -1.2903723 -38.022778 -1.2877809 -38.041477 -35.212147 -12.178888
3546000000 -37.945553 135.0312 -1.2899911 -40.68174 -1.2927966 -40.694386 -35.457912 -11.481468
3547000000 -38.119041 128.98894 -1.2962158 -43.32819 -1.2853054 -43.3311 -35.010624 -14.10007
3548000000 -38.657806 118.13837 -1.2972521 -45.995281 -1.2912978 -45.981964 -35.134697 -11.876257
3549000000 -38.831051 115.2938 -1.2913926 -48.640858 -1.2910023 -48.64698 -35.233566 -9.2923908
3550000000 -39.445877 110.63651 -1.2942729 -51.279327 -1.2939255 -51.283047 -35.239326 -11.777246
3551000000 -39.393841 107.99842 -1.29011 -53.940884 -1.2920238 -53.939636 -35.158829 -10.453352
3552000000 -39.715195 98.678604 -1.2948594 -56.591808 -1.2928782 -56.6021 -35.021004 -11.143751
3553000000 -40.128288 89.584351 -1.2919405 -59.229012 -1.2920959 -59.227482 -34.611599 -10.453297
3554000000 -40.467194 84.130562 -1.2919461 -61.888031 -1.2903605 -61.888092 -34.829788 -10.711392
3555000000 -40.770084 76.630486 -1.2946156 -64.506744 -1.2914605 -64.561989 -34.792908 -10.931202
3556000000 -41.013641 71.323044 -1.2897041 -67.186066 -1.2970647 -67.180054 -34.580658 -11.000952
3557000000 -41.045364 58.702991 -1.2959505 -69.812256 -1.289803 -69.85759 -34.626507 -9.7829971
3558000000 -41.221539 52.807648 -1.2954444 -72.478134 -1.294004 -72.497154 -34.676682 -9.8471022
3559000000 -40.873619 46.00185 -1.2963071 -75.102592 -1.2928258 -75.138885 -34.424614 -9.0022116
3560000000 -41.224998 37.20216 -1.2975001 -77.7808 -1.2923343 -77.814026 -34.386753 -9.2509699
3561000000 -40.888607 29.322681 -1.2922713 -80.414307 -1.2942858 -80.434586 -34.185764 -9.4810562
3562000000 -40.546257 21.385273 -1.2942119 -83.058998 -1.2964596 -83.100426 -34.135075 -11.042167
3563000000 -40.544052 14.919162 -1.2990744 -85.700882 -1.2928767 -85.730629 -34.590248 -10.213879
3564000000 -40.316208 10.649035 -1.294533 -88.372093 -1.2921586 -88.395821 -34.144531 -8.9676104
3565000000 -40.487862 4.2287979 -1.3005695 -91.038673 -1.2942791 -91.056732 -34.189091 -11.070126
3566000000 -40.055119 -6.1021667 -1.2974726 -93.646133 -1.2972678 -93.668213 -33.981152 -8.3775005
3567000000 -39.211559 -11.218304 -1.2953482 -96.296806 -1.2962493 -96.326469 -34.116772 -12.111608
3568000000 -39.584949 -18.326296 -1.2986112 -98.979904 -1.2947 -98.999092 -34.1791 -11.506554
3569000000 -39.230118 -23.903429 -1.2956421 -101.6391 -1.2953534 -101.64751 -34.073654 -10.129601
3570000000 -39.28001 -27.357609 -1.2939695 -104.25288 -1.2939416 -104.30211 -33.985077 -12.802798
3571000000 -39.026905 -29.306221 -1.2968787 -106.92279 -1.295601 -106.93851 -34.149815 -12.01954
3572000000 -38.612549 -39.889111 -1.2959784 -109.56558 -1.2933321 -109.58495 -34.185913 -12.750567
3573000000 -38.301537 -39.324242 -1.2941606 -112.21554 -1.2991436 -112.24509 -34.356911 -13.632703
3574000000 -38.119289 -44.464153 -1.2973135 -114.87589 -1.2914532 -114.89159 -34.290779 -12.47066
3575000000 -38.415306 -49.312546 -1.2975881 -117.51653 -1.2941418 -117.54511 -34.487629 -14.41252
3576000000 -38.235214 -56.106312 -1.3037663 -120.16732 -1.2966763 -120.2038 -34.521053 -13.766786
3577000000 -38.18882 -61.367973 -1.2997284 -122.83391 -1.2965678 -122.82752 -34.341839 -15.579952
3578000000 -38.190563 -65.56842 -1.2989609 -125.47925 -1.2953715 -125.49738 -34.480171 -13.665831
3579000000 -38.329716 -69.894295 -1.298246 -128.13849 -1.3017607 -128.15944 -35.249348 -15.274129
3580000000 -38.120792 -76.594582 -1.2945888 -130.76668 -1.2958355 -130.82724 -34.937702 -15.651018
3581000000 -38.23719 -79.742798 -1.2978334 -133.43367 -1.295383 -133.43901 -35.086983 -16.783957
3582000000 -38.540958 -84.304871 -1.2972276 -136.08403 -1.2987683 -136.11446 -35.20863 -15.711276
3583000000 -38.480122 -90.377144 -1.3010138 -138.73407 -1.2989368 -138.73862 -35.436195 -17.261311
3584000000 -38.487125 -94.092712 -1.3037006 -141.37888 -1.297273 -141.38504 -35.4585 -17.42922
3585000000 -38.267719 -100.5372 -1.297474 -144.03647 -1.2981302 -144.03302 -35.716221 -15.663335
3586000000 -38.47757 -102.83823 -1.297415 -146.66133 -1.2968528 -146.69368 -36.001812 -18.008818
3587000000 -38.364304 -110.23893 -1.3051167 -149.31984 -1.2918627 -149.34138 -35.984776 -17.631351
3588000000 -38.286922 -116.43771 -1.2969108 -151.94569 -1.3008312 -151.9946 -36.132671 -17.647253
3589000000 -38.296238 -121.1088 -1.2967395 -154.66145 -1.2945951 -154.65138 -36.426975 -16.41279
3590000000 -38.657452 -125.99795 -1.2946879 -157.23422 -1.2989627 -157.29375 -36.272488 -17.124605
3591000000 -38.216751 -132.0388 -1.3010457 -159.93871 -1.2999071 -159.94824 -36.58242 -18.134554
3592000000 -38.194767 -134.39142 -1.2991794 -162.56114 -1.2951019 -162.59277 -36.887634 -15.524344
3593000000 -38.046917 -144.06628 -1.2999148 -165.209 -1.3028527 -165.22221 -36.455791 -15.720471
3594000000 -37.792328 -144.9386 -1.3003073 -167.88773 -1.2980268 -167.8878 -36.722328 -15.555952
3595000000 -38.005535 -149.24818 -1.3010491 -170.50169 -1.3005766 -170.55197 -36.945709 -13.884039
3596000000 -37.992661 -154.29099 -1.3045727 -173.18388 -1.2990719 -173.21555 -36.953384 -13.327401
3597000000 -38.076729 -162.33054 -1.2999896 -175.80495 -1.2973692 -175.86418 -37.281506 -13.852916
3598000000 -37.804993 -167.08176 -1.301659 -178.48419 -1.3006709 -178.50443 -37.230133 -14.480168
3599000000 -37.793644 -170.44244 -1.3040973 178.86151 -1.2994651 178.85786 -37.379959 -11.959725
3600000000 -37.906487 -174.83153 -1.3030614 176.22145 -1.2965873 176.21735 -37.040951 -12.843255
3601000000 -38.028805 -177.29887 -1.3027802 173.56503 -1.299904 173.52696 -37.028828 -9.2792549
3602000000 -37.945019 177.55029 -1.3020084 170.92368 -1.2981141 170.89377 -37.020721 -11.049716
3603000000 -37.64946 171.72443 -1.2981358 168.27452 -1.3020213 168.25195 -36.854965 -11.380112
3604000000 -38.150501 167.07433 -1.3031694 165.63849 -1.3027689 165.59666 -37.027634 -8.8494463
3605000000 -38.001724 165.10216 -1.3006604 162.96983 -1.3000447 162.95697 -36.510128 -8.2571058
3606000000 -38.287663 154.8264 -1.3035419 160.32137 -1.3017471 160.30688 -36.535713 -7.4852529
3607000000 -38.089951 155.27899 -1.3035622 157.67896 -1.2993548 157.67784 -36.670765 -7.5451522
3608000000 -38.59935 146.58252 -1.3096337 155.01804 -1.3003139 155.00452 -36.356186 -8.3100424
3609000000 -38.295578 145.42401 -1.3024315 152.39731 -1.3051939 152.35608 -36.482693 -6.8331389
3610000000 -38.302353 139.25487 -1.3080997 149.73589 -1.2983208 149.7291 -36.451401 -5.1920795
3611000000 -38.739609 132.22821 -1.3028252 147.07672 -1.303357 147.05052 -35.836475 -5.5072341
3612000000 -38.614132 128.74977 -1.3059361 144.43643 -1.3034905 144.40286 -35.723587 -4.5553441
3613000000 -38.937263 123.63152 -1.3077003 141.81142 -1.3056662 141.74699 -35.88179 -5.1965585
3614000000 -38.651459 118.28682 -1.3073291 139.10776 -1.3023968 139.10648 -35.23502 -4.0879064
3615000000 -38.874847 114.15454 -1.3029999 136.48013 -1.3055488 136.44545 -35.210411 -5.4165258
3616000000 -38.542217 104.9143 -1.3051103 133.82906 -1.3022326 133.81499 -35.117573 -6.1614327
3617000000 -39.314552 102.80306 -1.3031138 131.18721 -1.3047887 131.16122 -35.129379 -6.0168309
3618000000 -39.377865 97.547974 -1.3103715 128.51765 -1.3026655 128.54219 -34.90773 -4.200954
3619000000 -38.634178 89.418884 -1.3044168 125.89056 -1.3061103 125.85191 -34.682213 -6.3416557
3620000000 -39.22073 85.90168 -1.3072983 123.20712 -1.3059666 123.20709 -34.772804 -6.7884774
3621000000 -39.020901 76.809181 -1.305481 120.60408 -1.3041368 120.5518 -34.55484 -4.727396
3622000000 -39.33139 72.973289 -1.3099718 117.91733 -1.3060368 117.88748 -34.639061 -5.6369758
3623000000 -39.002991 64.065216 -1.3048173 115.28917 -1.3016921 115.27477 -34.253117 -4.4938598
3624000000 -39.531044 62.125713 -1.3055065 112.59461 -1.3061953 112.61516 -34.090641 -6.1590004
3625000000 -39.224392 55.692318 -1.3057508 109.97143 -1.3081732 109.95575 -34.662586 -7.2533765
3626000000 -39.315853 53.716305 -1.3103995 107.31522 -1.3071458 107.3054 -34.315319 -7.6204748
3627000000 -39.643879 45.45644 -1.3083957 104.64732 -1.3077079 104.68022 -34.257935 -8.786623
3628000000 -39.089058 40.164524 -1.3034409 102.00552 -1.3079889 102.00397 -34.140022 -7.2088976
3629000000 -39.258247 37.654491 -1.3088771 99.357674 -1.3123497 99.342789 -34.509766 -10.337275
3630000000 -39.342312 31.370264 -1.3087393 96.741631 -1.3076694 96.696175 -34.306213 -10.175506
3631000000 -39.239418 27.065308 -1.3078059 94.115105 -1.3098552 94.037308 -34.453735 -9.9832602
3632000000 -39.44294 22.160511 -1.3045188 91.437195 -1.3079314 91.419304 -34.417645 -12.571417
3633000000 -39.096466 16.405731 -1.3097359 88.784492 -1.3049747 88.787697 -34.486568 -11.860518
3634000000 -39.465744 14.345095 -1.3082509 86.1455 -1.3022969 86.110153 -34.760891 -12.898116
3635000000 -39.667309 8.6852665 -1.3075659 83.516266 -1.3057959 83.471863 -34.602612 -13.516498
3636000000 -39.774048 8.0137682 -1.3103303 80.833549 -1.3108052 80.829239 -34.885838 -14.55294
3637000000 -39.756042 0.4655408 -1.3075838 78.169838 -1.3049083 78.152046 -35.021248 -16.770449
3638000000 -40.184719 -1.4413033 -1.3113352 75.541489 -1.3088026 75.506454 -35.075134 -17.920469
3639000000 -40.521484 -3.044127 -1.3103523 72.874535 -1.3092548 72.866127 -35.404114 -18.84272
3640000000 -40.381584 -12.827664 -1.310324 70.266792 -1.305182 70.221214 -35.545757 -20.029167
3641000000 -40.569759 -15.790318 -1.3095214 67.602669 -1.3128238 67.55323 -35.725796 -20.478447
3642000000 -41.269863 -19.670227 -1.3096648 64.936279 -1.3088782 64.904839 -35.762756 -22.4767
3643000000 -41.479847 -28.367697 -1.3091145 62.305172 -1.3111756 62.269333 -36.46933 -24.267908
3644000000 -41.427372 -30.027311 -1.30971 59.634094 -1.3087218 59.599426 -36.253952 -25.515289
3645000000 -42.511024 -31.653795 -1.3134745 56.999557 -1.3053424 56.970741 -36.854424 -26.636272
3646000000 -42.098343 -42.703194 -1.3118321 54.339394 -1.3086123 54.317528 -36.775036 -26.094904
3647000000 -42.949047 -44.039703 -1.3120558 51.685314 -1.3061935 51.654678 -37.048958 -28.267292
3648000000 -43.368641 -55.494354 -1.3099403 49.035645 -1.3102077 49.012131 -37.63216 -30.442963
3649000000 -43.415607 -54.007473 -1.3135985 46.385227 -1.3119056 46.374435 -37.837086 -28.484631
3650000000 -44.747192 -62.68084 -1.3134886 43.739311 -1.3091854 43.699417 -38.067734 -30.594273
3651000000 -45.140514 -73.669495 -1.3075638 41.098427 -1.3120201 41.061638 -38.853848 -30.043568
3652000000 -44.999893 -78.767181 -1.3120979 38.437325 -1.3073386 38.430088 -39.164776 -29.913551
3653000000 -45.411991 -82.517303 -1.3131677 35.773029 -1.3107656 35.790325 -40.078403 -30.271965
3654000000 -46.709305 -93.955894 -1.3133061 33.137684 -1.3095672 33.112404 -40.02647 -30.316973
3655000000 -46.11042 -99.187057 -1.3147501 30.492216 -1.308663 30.48451 -39.903103 -30.765532
3656000000 -46.237148 -110.95483 -1.3092942 27.84745 -1.3065968 27.799715 -40.861973 -28.730122
3657000000 -47.174271 -120.33063 -1.3092026 25.194847 -1.3119344 25.180874 -41.079433 -25.160879
3658000000 -48.018307 -126.21648 -1.3128648 22.528555 -1.3093667 22.516821 -41.981838 -25.899588
3659000000 -47.387806 -138.33141 -1.3125944 19.866592 -1.3131218 19.877689 -42.485683 -18.243464
3660000000 -48.377865 -152.50117 -1.3122053 17.233646 -1.309949 17.199064 -43.310204 -20.257881
3661000000 -47.023342 -164.76364 -1.3132707 14.587976 -1.3091644 14.566106 -43.417545 -14.044786
3662000000 -47.253738 -173.51062 -1.3183272 11.935579 -1.3137383 11.929755 -43.291264 -12.459404
3663000000 -46.358204 -176.98393 -1.3128476 9.2916422 -1.310213 9.2875156 -43.802464 -8.079587
3664000000 -47.272423 173.95711 -1.3147831 6.6483278 -1.3101587 6.6489649 -43.615452 0.37086603
3665000000 -46.149441 166.3201 -1.3163573 3.994734 -1.313717 3.9406893 -43.125519 11.309156
3666000000 -45.814468 150.63214 -1.3142866 1.3468632 -1.3140641 1.2869077 -42.846462 17.125746
3667000000 -45.71167 143.76956 -1.3138806 -1.3108128 -1.3129969 -1.3518306 -42.370285 20.732201
3668000000 -44.673046 134.65959 -1.3141623 -3.9501231 -1.3142701 -3.9864783 -41.766361 23.605692
3669000000 -44.968784 121.41022 -1.3140473 -6.5981917 -1.3113399 -6.645093 -41.508518 28.566866
3670000000 -43.988052 118.38088 -1.3126434 -9.264555 -1.3126179 -9.2691746 -40.844898 31.394808
3671000000 -43.487659 110.10257 -1.3147607 -11.908152 -1.3173538 -11.956426 -40.364738 33.850876
3672000000 -42.356491 99.969475 -1.3111217 -14.585338 -1.3152393 -14.588058 -39.120136 33.973339
3673000000 -42.602657 93.251266 -1.3155434 -17.206156 -1.315035 -17.266333 -38.505848 37.555275
3674000000 -41.661057 93.444511 -1.3157754 -19.883141 -1.3142042 -19.873169 -37.782036 37.977245
3675000000 -40.648998 80.247131 -1.3162566 -22.537251 -1.313993 -22.543118 -37.207172 40.449512
3676000000 -40.0229 76.583664 -1.3122656 -25.176407 -1.3162714 -25.225647 -36.77145 38.326599
3677000000 -39.619415 73.824142 -1.316236 -27.846853 -1.316018 -27.822086 -36.315025 39.756561
3678000000 -39.06852 66.999458 -1.3188273 -30.484358 -1.3144617 -30.486399 -35.833755 37.137497
3679000000 -38.547447 61.790134 -1.3172339 -33.087063 -1.3133762 -33.132645 -35.214592 38.128632
3680000000 -37.978577 58.430405 -1.3183153 -35.784649 -1.3150209 -35.79221 -34.846745 37.595787
3681000000 -37.539429 54.398777 -1.3208647 -38.409985 -1.3140967 -38.454056 -34.172955 37.864044
3682000000 -37.300556 50.043221 -1.3241277 -41.068249 -1.3152975 -41.096634 -33.867962 35.597729
3683000000 -36.751816 45.724148 -1.3193902 -43.702614 -1.3139429 -43.761734 -33.622177 35.33688
3684000000 -36.492172 41.678356 -1.318343 -46.366417 -1.3181157 -46.37434 -33.366249 34.982578
3685000000 -35.967281 38.757729 -1.3195691 -49.01038 -1.3164217 -49.066395 -32.909088 34.451439
3686000000 -35.851498 34.198395 -1.3226678 -51.667961 -1.3165076 -51.681534 -32.705776 33.056885
3687000000 -35.219715 29.627398 -1.3226335 -54.329765 -1.3211819 -54.35141 -32.542496 31.050529
3688000000 -34.994453 26.430573 -1.3219336 -56.977608 -1.3144951 -56.995892 -32.059246 29.63866
3689000000 -34.758152 24.299477 -1.324351 -59.617424 -1.3184282 -59.635967 -32.050537 29.506714
3690000000 -34.496048 20.999279 -1.3212037 -62.278061 -1.3197358 -62.282352 -31.702805 28.232771
3691000000 -34.373886 16.951019 -1.321144 -64.927101 -1.3197919 -64.943016 -31.587091 27.283056
3692000000 -34.050819 12.239539 -1.3186936 -67.550575 -1.3166839 -67.598366 -31.346684 25.321503
3693000000 -34.001698 8.1690407 -1.3255669 -70.235878 -1.323614 -70.254257 -31.122305 23.856007
3694000000 -33.82571 6.1946239 -1.3258309 -72.883011 -1.3202847 -72.908981 -31.366308 22.667234
3695000000 -33.54454 2.5085771 -1.3259834 -75.532074 -1.3190405 -75.549133 -31.036495 21.997713
3696000000 -33.38348 -0.24620496 -1.3217806 -78.168228 -1.3198479 -78.180168 -30.681616 19.844208
3697000000 -33.336102 -4.3749065 -1.3229585 -80.818939 -1.3197557 -80.84436 -30.724998 17.777809
3698000000 -33.510288 -7.729125 -1.3249487 -83.475632 -1.3234321 -83.468414 -30.765266 15.986888
3699000000 -33.406868 -10.876427 -1.3246144 -86.127762 -1.3198185 -86.12085 -30.692295 14.364032
3700000000 -33.406239 -15.645481 -1.3259547 -88.780365 -1.3230807 -88.780594 -30.494373 13.574729
3701000000 -33.171551 -18.179789 -1.3189468 -91.422951 -1.3243952 -91.430717 -30.368729 11.907709
3702000000 -32.98835 -23.081135 -1.3217367 -94.048187 -1.3243555 -94.118904 -30.53392 9.8334513
3703000000 -33.050179 -26.789001 -1.3257183 -96.706299 -1.3222411 -96.75721 -30.522472 8.812849
3704000000 -33.032497 -31.286272 -1.3225061 -99.384277 -1.3229325 -99.390793 -30.472237 5.7441759
3705000000 -33.167191 -33.216618 -1.3257337 -102.02769 -1.3250386 -102.03748 -30.693588 4.8846345
3706000000 -33.134136 -35.809624 -1.3249761 -104.63432 -1.3222853 -104.68261 -30.451834 2.8135986
3707000000 -33.003796 -42.044144 -1.3248458 -107.32816 -1.3253915 -107.33058 -30.438412 0.88209462
3708000000 -33.010181 -44.788475 -1.3252935 -109.95094 -1.3250741 -109.98822 -30.413904 -1.1209867
3709000000 -33.097839 -49.930679 -1.3257126 -112.61028 -1.3243397 -112.60091 -30.472317 -1.0501703
3710000000 -32.932838 -52.920155 -1.3271492 -115.28846 -1.3228911 -115.29864 -30.37776 -3.7422662
3711000000 -33.204338 -55.649204 -1.3261844 -117.90177 -1.3251917 -117.91418 -30.423937 -5.1485481
3712000000 -33.109112 -59.144241 -1.3226604 -120.55476 -1.3232942 -120.55841 -30.553823 -6.6778097
3713000000 -33.010105 -64.696205 -1.3234662 -123.18687 -1.3235954 -123.25418 -30.792763 -7.6706524
3714000000 -33.053253 -67.954391 -1.3258812 -125.87529 -1.3269517 -125.88595 -30.733532 -9.4739561
3715000000 -33.066196 -70.44487 -1.3252033 -128.52153 -1.3257843 -128.5202 -30.83774 -11.243979
3716000000 -33.271397 -76.681763 -1.3275354 -131.1799 -1.3204265 -131.16071 -30.865292 -12.696724
3717000000 -33.477238 -80.905426 -1.3276678 -133.7925 -1.3281001 -133.83926 -30.870436 -13.846718
3718000000 -33.388344 -83.007751 -1.3242064 -136.48808 -1.3166773 -136.48006 -31.185812 -16.221497
3719000000 -33.65963 -87.358208 -1.3272637 -139.10368 -1.3226893 -139.13321 -31.015457 -16.692783
3720000000 -33.42453 -92.784027 -1.3260157 -141.72842 -1.3235012 -141.76489 -31.181089 -17.063208
3721000000 -33.56068 -94.40554 -1.3256329 -144.40422 -1.3291634 -144.39749 -31.486032 -16.113974
3722000000 -33.636833 -97.50386 -1.3250955 -147.04573 -1.3233601 -147.07259 -31.716536 -18.065853
3723000000 -33.972462 -104.42033 -1.3269662 -149.72729 -1.3234792 -149.73483 -31.725128 -19.778921
3724000000 -33.952286 -107.1223 -1.3265635 -152.36729 -1.3245785 -152.36632 -31.940655 -20.142469
3725000000 -34.396908 -111.16917 -1.3281208 -154.99722 -1.3243299 -155.00189 -32.005188 -20.817053
3726000000 -34.618084 -115.55807 -1.3254408 -157.65224 -1.3256052 -157.67155 -32.409115 -22.106527
3727000000 -34.543919 -119.11108 -1.3277111 -160.27788 -1.3267089 -160.30769 -32.327579 -21.618277
3728000000 -34.891071 -123.74956 -1.325963 -162.94099 -1.3205633 -162.98285 -32.822693 -21.381468
3729000000 -35.524834 -127.06728 -1.3296517 -165.59972 -1.3283535 -165.63914 -32.981625 -21.461306
3730000000 -35.311722 -134.5408 -1.3282133 -168.27344 -1.3257326 -168.27383 -33.160217 -19.738098
3731000000 -35.65493 -138.53239 -1.3269258 -170.9043 -1.3262641 -170.92683 -33.109528 -20.966148
3732000000 -36.15741 -144.91988 -1.3265097 -173.56821 -1.3252546 -173.60858 -33.666878 -20.130842
3733000000 -36.594948 -148.82043 -1.329136 -176.20079 -1.3255205 -176.23183 -33.89603 -19.732504
3734000000 -36.66927 -154.672 -1.3270416 -178.85283 -1.3242706 -178.86118 -34.053505 -18.341038
3735000000 -37.085514 -159.53667 -1.3312654 178.51573 -1.3269759 178.44171 -34.299297 -15.703879
3736000000 -37.708076 -166.37029 -1.3302494 175.85298 -1.3245596 175.81813 -34.557602 -15.64063
3737000000 -37.652634 -171.36308 -1.3281933 173.18884 -1.3240623 173.18095 -34.731735 -14.366748
3738000000 -37.932827 -179.31351 -1.3238068 170.52763 -1.3277529 170.51668 -34.532639 -11.191293
3739000000 -38.564804 173.88062 -1.3308846 167.8902 -1.3258609 167.86444 -34.874073 -10.926618
3740000000 -39.008972 167.85774 -1.3309805 165.21863 -1.3272904 165.23967 -35.211174 -9.9630013
3741000000 -39.269863 161.0954 -1.3274046 162.59566 -1.3236736 162.58873 -35.064247 -6.9030113
3742000000 -39.187737 152.85417 -1.3293121 159.93681 -1.329952 159.90158 -35.094307 -2.6544826
3743000000 -39.337223 140.97202 -1.3321149 157.32246 -1.3290063 157.29672 -35.220558 -2.241396
3744000000 -39.397442 135.28258 -1.33225 154.61516 -1.3281258 154.58983 -34.906227 -0.78038859
3745000000 -39.585835 124.71913 -1.3319112 151.97658 -1.3271264 151.98952 -34.926731 2.6260712
3746000000 -39.274227 120.24642 -1.3304027 149.33223 -1.3336532 149.32251 -34.823612 4.8619514
3747000000 -39.563839 112.27671 -1.335656 146.67825 -1.324469 146.67592 -34.696041 7.1570482
3748000000 -39.115746 104.68506 -1.3330585 144.03511 -1.3281423 144.00194 -34.549835 9.0801172
3749000000 -38.988525 97.061417 -1.3298342 141.39288 -1.3320643 141.34132 -34.408928 8.5538511
3750000000 -38.841255 85.701736 -1.330624 138.71587 -1.3287545 138.72144 -34.331116 9.5859852
3751000000 -38.292637 79.416519 -1.3296335 136.07391 -1.3284713 136.05977 -34.098396 10.551473
3752000000 -38.054737 73.8722 -1.3309968 133.41644 -1.3268273 133.41461 -33.764229 11.847937
3753000000 -37.529263 69.948868 -1.3322785 130.80385 -1.3302696 130.75676 -33.8825 12.089681
3754000000 -37.657379 61.635437 -1.3331515 128.12659 -1.3302397 128.12552 -33.504009 11.874942
3755000000 -37.004036 57.063152 -1.329836 125.45763 -1.3287082 125.45538 -33.19136 11.378019
3756000000 -36.718105 50.192028 -1.3319155 122.82764 -1.3285089 122.83956 -33.077412 12.979692
3757000000 -36.64502 46.66972 -1.3314838 120.18481 -1.3322968 120.15871 -32.816788 12.37357
3758000000 -36.050873 39.312191 -1.3317273 117.50972 -1.3337243 117.51473 -32.398315 13.026023
3759000000 -36.212616 35.797184 -1.3331183 114.87242 -1.3342764 114.84232 -32.237915 11.743098
3760000000 -35.884785 31.44297 -1.3370726 112.25176 -1.331652 112.22683 -32.226868 11.931217
3761000000 -35.483147 21.392988 -1.3363081 109.56914 -1.3326082 109.56666 -31.792788 9.8360691
3762000000 -35.418602 18.994841 -1.3363134 106.93607 -1.3364581 106.90594 -31.684196 9.4035854
3763000000 -35.419327 13.416452 -1.335416 104.29164 -1.3329773 104.25338 -31.594458 8.1943369
3764000000 -34.830078 11.555143 -1.3333749 101.63415 -1.3333541 101.59245 -31.309732 8.4391203
3765000000 -34.597736 5.3215837 -1.3363335 98.995239 -1.3306363 98.979713 -31.233011 6.7443194
3766000000 -34.409412 0.044923946 -1.3329343 96.31707 -1.3306282 96.316299 -31.147913 5.3943954
3767000000 -34.588726 -2.9199183 -1.3380923 93.705559 -1.332193 93.676559 -30.962044 5.2101126
3768000000 -34.120556 -8.9377546 -1.3367441 91.025467 -1.3362877 91.007698 -30.807457 3.8364244
3769000000 -34.106499 -15.517239 -1.3372072 88.388412 -1.3333534 88.354187 -30.792719 0.65168035
3770000000 -33.730034 -16.667717 -1.337249 85.743225 -1.334633 85.721184 -30.623486 0.026750769
3771000000 -33.589897 -20.825111 -1.3352966 83.077049 -1.3357106 83.093781 -30.502588 -0.98631036
3772000000 -33.2673 -25.303537 -1.3354248 80.449432 -1.3341477 80.396782 -30.385502 -2.6554134
3773000000 -33.35627 -30.491516 -1.3361884 77.798988 -1.3352258 77.763512 -30.221882 -2.8323989
3774000000 -33.151745 -34.569725 -1.3376979 75.133347 -1.3377683 75.122978 -30.286289 -4.34478
3775000000 -33.153236 -38.210087 -1.3427744 72.472519 -1.3330754 72.46553 -30.288214 -5.2020407
3776000000 -33.156822 -42.253353 -1.3362887 69.826355 -1.3364965 69.835617 -30.125097 -6.1757345
3777000000 -32.797031 -45.82616 -1.3391566 67.203735 -1.3352258 67.164764 -29.965918 -8.6539869
3778000000 -32.839394 -50.779118 -1.3373157 64.520653 -1.3391489 64.528107 -30.145624 -9.96311
3779000000 -32.565842 -54.091232 -1.3391566 61.890045 -1.336382 61.866596 -29.824322 -10.721102
3780000000 -32.640793 -58.952988 -1.3384337 59.237679 -1.3360419 59.225636 -29.990522 -11.346609
3781000000 -32.503021 -60.119331 -1.3385669 56.590794 -1.3366405 56.583191 -29.996014 -12.81827
3782000000 -32.491138 -66.040619 -1.3380339 53.960621 -1.3390101 53.934738 -29.785095 -13.716791
3783000000 -32.667385 -69.500023 -1.3377285 51.289429 -1.3392624 51.273952 -29.955084 -15.924573
3784000000 -32.386749 -73.704498 -1.3397378 48.648621 -1.3431351 48.627541 -29.958641 -15.501615
3785000000 -32.244316 -78.090485 -1.3385003 46.001465 -1.3370843 45.989285 -30.010799 -17.721222
3786000000 -32.448757 -81.037827 -1.342249 43.36821 -1.3344134 43.339417 -30.102322 -17.545303
3787000000 -32.504757 -84.917091 -1.3421834 40.696831 -1.3357898 40.66972 -30.098577 -19.872284
3788000000 -32.733822 -88.620781 -1.3406886 38.056095 -1.341828 38.033298 -30.376549 -20.113422
3789000000 -32.553776 -92.149879 -1.3411916 35.418293 -1.3394164 35.363438 -30.224709 -20.492186
3790000000 -32.623821 -95.743683 -1.3399206 32.764027 -1.3365462 32.713673 -30.388277 -21.158447
3791000000 -32.881947 -99.85495 -1.3396461 30.101788 -1.3432109 30.101341 -30.544882 -21.473562
3792000000 -32.884853 -102.78051 -1.3431686 27.460003 -1.3379292 27.433281 -30.588951 -22.939302
3793000000 -33.002705 -108.56014 -1.3411969 24.80368 -1.3414764 24.796938 -30.719471 -23.684086
3794000000 -33.115963 -111.45773 -1.3426559 22.168539 -1.3383646 22.126751 -30.884066 -23.166004
3795000000 -33.404827 -116.65679 -1.3428562 19.510408 -1.3396176 19.460421 -31.205418 -24.327591
3796000000 -33.566685 -121.88254 -1.3372878 16.830763 -1.338353 16.826178 -31.344425 -23.875105
3797000000 -33.745159 -125.91596 -1.3409427 14.190475 -1.3357754 14.200713 -31.457363 -25.130005
3798000000 -33.82806 -130.58775 -1.3431165 11.547764 -1.3370585 11.50506 -31.506123 -23.075689
3799000000 -34.470131 -134.63315 -1.3421425 8.908803 -1.3398554 8.9000959 -31.798386 -26.354933
3800000000 -34.214962 -139.8831 -1.3447434 6.2572217 -1.3378968 6.2375636 -32.111431 -25.643902
3801000000 -34.504185 -143.8848 -1.3425462 3.6002436 -1.3412446 3.5565858 -31.872677 -24.41396
3802000000 -35.051689 -149.30739 -1.3398354 0.947451 -1.3410816 0.9315691 -32.255589 -25.072065
3803000000 -34.997135 -154.99606 -1.3396468 -1.6804053 -1.3414197 -1.7037475 -32.397339 -24.957174
3804000000 -35.25605 -160.07442 -1.3432966 -4.339045 -1.339927 -4.3594184 -32.660072 -23.53371
3805000000 -35.460323 -167.08603 -1.3422307 -7.0096583 -1.3389537 -7.021646 -32.669109 -23.284618
3806000000 -35.477425 -172.79872 -1.3456477 -9.6414871 -1.3393966 -9.6437521 -33.066948 -22.479824
3807000000 -36.087227 -178.67801 -1.3414179 -12.312429 -1.3397962 -12.321408 -33.321526 -21.95639
3808000000 -35.967453 176.44211 -1.3426372 -14.939838 -1.3362159 -14.96035 -33.479038 -20.967751
3809000000 -36.19331 167.85785 -1.3430918 -17.617504 -1.3375168 -17.627026 -33.449203 -21.456896
3810000000 -36.059494 161.27539 -1.3420924 -20.250034 -1.3383819 -20.285923 -33.24678 -18.101595
3811000000 -36.107307 155.93472 -1.3435249 -22.902536 -1.3396778 -22.934654 -33.280422 -18.825821
3812000000 -36.244194 150.37279 -1.3418968 -25.552828 -1.342622 -25.571791 -33.41724 -17.078508
3813000000 -36.417297 144.57169 -1.3429831 -28.187798 -1.3396546 -28.223804 -33.422623 -17.774027
3814000000 -36.464821 136.7477 -1.3464731 -30.867811 -1.3412611 -30.854567 -33.564091 -15.671638
3815000000 -36.434589 129.53751 -1.3430629 -33.499413 -1.3424041 -33.534393 -33.493687 -14.390821
3816000000 -36.361198 124.45366 -1.3425282 -36.112663 -1.3395855 -36.168636 -33.250862 -12.387493
3817000000 -36.399269 119.61631 -1.3421932 -38.788734 -1.3447769 -38.839031 -33.195225 -12.376022
3818000000 -36.068775 110.3078 -1.3455327 -41.442554 -1.3409615 -41.475864 -33.133167 -11.658076
3819000000 -36.065422 106.31723 -1.3438258 -44.106964 -1.3416895 -44.119308 -33.145985 -11.436608
3820000000 -36.248695 101.50775 -1.3445588 -46.726311 -1.3454423 -46.761066 -33.143135 -11.430747
3821000000 -35.85392 91.65966 -1.3415418 -49.420448 -1.3421397 -49.415771 -32.451275 -10.637413
3822000000 -36.068993 86.571228 -1.3462713 -52.059284 -1.3444759 -52.083443 -32.477753 -10.653922
3823000000 -35.252964 82.013374 -1.3477665 -54.692516 -1.3395396 -54.707767 -32.259274 -9.5825319
3824000000 -35.715725 73.872856 -1.3460263 -57.342655 -1.3422892 -57.388153 -32.064434 -10.262681
3825000000 -35.497028 69.517853 -1.3460333 -60.00639 -1.3417842 -60.015327 -31.929922 -10.107547
3826000000 -35.207001 65.661362 -1.3461689 -62.646713 -1.3431246 -62.684227 -31.801798 -9.4997606
3827000000 -35.134735 59.000027 -1.3436751 -65.299255 -1.3451166 -65.334801 -31.495544 -10.868951
3828000000 -34.807892 53.769424 -1.3495586 -67.949158 -1.3415227 -67.96479 -31.465797 -10.530587
3829000000 -34.67181 48.378784 -1.3449085 -70.592865 -1.3434935 -70.6119 -31.163729 -10.62278
3830000000 -34.475098 41.385391 -1.3451741 -73.264969 -1.3400707 -73.303314 -30.885742 -11.946981
3831000000 -34.320393 37.737736 -1.3489685 -75.903381 -1.3393368 -75.895386 -30.876011 -12.408572
3832000000 -34.046974 33.220875 -1.3453294 -78.541985 -1.347124 -78.561546 -30.871981 -13.189311
3833000000 -33.890453 28.580397 -1.3485003 -81.20295 -1.34542 -81.221626 -30.498566 -13.467315
3834000000 -33.744118 22.378202 -1.347942 -83.854927 -1.3481927 -83.875 -30.438942 -13.443882
3835000000 -33.707344 19.101658 -1.3512247 -86.507896 -1.3434536 -86.508751 -30.355984 -15.33741
3836000000 -33.508511 13.404617 -1.3515533 -89.153038 -1.3487182 -89.198593 -30.072618 -16.509991
3837000000 -33.277519 8.9078703 -1.3545434 -91.790222 -1.3451046 -91.817596 -29.955479 -16.462273
3838000000 -33.330269 4.2598987 -1.3497345 -94.47937 -1.3461435 -94.453659 -30.057589 -17.723022
3839000000 -33.027756 0.35160226 -1.3470192 -97.104523 -1.3517441 -97.144836 -29.995256 -18.459288
3840000000 -32.848373 -4.2871184 -1.3442261 -99.743301 -1.347482 -99.784378 -29.7015 -19.768793
3841000000 -32.539265 -7.40312 -1.3460934 -102.3892 -1.3467971 -102.43633 -29.550007 -20.215054
3842000000 -32.680309 -12.394955 -1.3499906 -105.06926 -1.35031 -105.08222 -29.605017 -22.013052
3843000000 -32.558983 -15.993073 -1.3476695 -107.7037 -1.3511529 -107.72292 -29.618753 -22.78319
3844000000 -32.358521 -20.112528 -1.3489431 -110.35404 -1.350086 -110.36517 -29.593527 -23.06319
3845000000 -32.314342 -24.074385 -1.3514303 -113.01625 -1.350546 -113.02866 -29.558905 -23.926786
3846000000 -32.154873 -28.688652 -1.3517212 -115.6291 -1.3511699 -115.67543 -29.38423 -26.053217
3847000000 -31.99884 -31.763105 -1.3478696 -118.30853 -1.3479371 -118.29966 -29.325148 -26.876709
3848000000 -32.280159 -36.687 -1.3534838 -120.93388 -1.3505572 -120.96664 -29.472713 -27.647165
3849000000 -32.16798 -40.706318 -1.3488404 -123.58708 -1.3493549 -123.63153 -29.553736 -29.253168
3850000000 -31.905081 -42.335255 -1.354919 -126.23881 -1.3490272 -126.23689 -29.489687 -28.996748
3851000000 -32.014408 -47.325726 -1.3531101 -128.86946 -1.3496653 -128.91006 -29.37672 -31.094618
3852000000 -32.158066 -49.818279 -1.3521112 -131.52013 -1.3507106 -131.55951 -29.489471 -31.676899
3853000000 -32.087231 -54.139366 -1.3524526 -134.19658 -1.3507046 -134.1904 -29.502295 -32.912991
3854000000 -32.271938 -58.422428 -1.3515967 -136.82863 -1.3456074 -136.87257 -29.677412 -34.552258
3855000000 -32.220295 -61.502522 -1.3531214 -139.46892 -1.3463348 -139.51622 -29.675632 -35.642799
3856000000 -32.17226 -65.856331 -1.3532833 -142.10683 -1.3508159 -142.17198 -29.853956 -36.818233
3857000000 -32.19976 -69.863892 -1.3509066 -144.78433 -1.3461195 -144.82013 -30.024305 -39.146255
3858000000 -32.368443 -72.408707 -1.3572737 -147.40213 -1.3459876 -147.45543 -30.003424 -39.823059
3859000000 -32.474194 -78.079552 -1.354176 -150.10136 -1.3516564 -150.08255 -30.303194 -40.744022
3860000000 -32.694038 -81.078789 -1.3521734 -152.72058 -1.3479286 -152.74718 -30.154877 -42.308765
3861000000 -32.708153 -85.342918 -1.3544911 -155.3867 -1.3518809 -155.39977 -30.487202 -42.606533
3862000000 -32.831638 -87.540871 -1.3536128 -158.05016 -1.3488269 -158.02039 -30.688412 -44.824829
3863000000 -33.191792 -92.189423 -1.3532763 -160.6933 -1.3518593 -160.69952 -30.923182 -46.310059
3864000000 -33.462536 -95.505898 -1.3535216 -163.33031 -1.3545431 -163.34195 -30.953402 -46.360958
3865000000 -33.574425 -99.398048 -1.3545169 -165.97844 -1.3532681 -165.97729 -31.245756 -47.968628
3866000000 -33.728004 -103.92198 -1.3536789 -168.63287 -1.3547163 -168.64052 -31.369431 -49.419155
3867000000 -33.797729 -108.43312 -1.3497286 -171.26222 -1.3509688 -171.29678 -31.683712 -49.852367
3868000000 -33.916477 -111.10418 -1.3580384 -173.92908 -1.3533536 -173.94229 -31.84931 -51.135952
3869000000 -34.253853 -118.37255 -1.3533781 -176.56935 -1.3523375 -176.59584 -31.884001 -51.587101
3870000000 -34.565937 -121.42585 -1.3508996 -179.24571 -1.347762 -179.23586 -32.591114 -53.336113
3871000000 -35.0425 -125.84845 -1.3510282 178.11792 -1.3504881 178.10909 -32.496197 -52.918964
3872000000 -35.286392 -129.25206 -1.3537807 175.47711 -1.3505388 175.45711 -33.001011 -54.682323
3873000000 -35.895412 -134.82291 -1.3507826 172.82726 -1.3504791 172.8172 -33.121101 -56.506035
3874000000 -35.72617 -139.87958 -1.348596 170.17281 -1.3509607 170.15726 -33.445087 -53.97871
3875000000 -36.287903 -144.40366 -1.3528277 167.53773 -1.3496829 167.50363 -33.624859 -54.709984
3876000000 -36.411808 -148.10025 -1.3558844 164.85547 -1.3485829 164.84319 -34.039776 -52.047421
3877000000 -36.510235 -153.1671 -1.3562255 162.23148 -1.3465832 162.19783 -34.09671 -53.371807
3878000000 -37.06263 -156.33623 -1.3491772 159.55054 -1.3538069 159.57318 -34.675621 -53.082623
3879000000 -37.368332 -161.26768 -1.3547103 156.91643 -1.3519551 156.89209 -34.84243 -52.121925
3880000000 -37.727001 -168.62781 -1.3566207 154.2708 -1.3503125 154.25972 -35.174061 -51.96727
3881000000 -38.331863 -170.81219 -1.3503096 151.62253 -1.3520858 151.60583 -35.492077 -49.443138
3882000000 -38.541214 -178.14343 -1.3515735 148.97606 -1.3530055 148.94383 -35.425365 -47.266281
3883000000 -38.896713 174.64403 -1.3538656 146.32813 -1.3495996 146.29936 -35.419197 -46.749352
3884000000 -39.882828 168.7397 -1.3588517 143.68944 -1.3513035 143.65195 -36.176567 -46.75095
3885000000 -39.867199 160.50002 -1.3542507 141.05357 -1.3492426 141.00706 -36.261513 -44.397026
3886000000 -40.490082 154.52296 -1.3553038 138.36667 -1.3547941 138.36671 -36.447723 -41.790997
3887000000 -40.701302 144.56676 -1.3513677 135.72034 -1.3529171 135.7054 -36.352867 -39.321632
3888000000 -41.323654 134.83122 -1.3581998 133.08389 -1.3529302 133.04901 -36.281292 -35.949326
3889000000 -41.206875 124.76148 -1.3549706 130.41251 -1.3541692 130.40385 -35.769669 -36.571602
3890000000 -41.426731 115.81045 -1.3527503 127.7745 -1.3554982 127.74137 -35.86734 -34.007046
3891000000 -41.26255 108.19555 -1.358146 125.10757 -1.3497981 125.08675 -35.883354 -29.454926
3892000000 -42.322289 99.139954 -1.3567108 122.47141 -1.3526386 122.41153 -35.553646 -27.442886
3893000000 -41.525181 92.564285 -1.3579237 119.8313 -1.3562226 119.81936 -35.76733 -25.001575
3894000000 -40.95475 76.789253 -1.3536114 117.16441 -1.3579987 117.13414 -35.138382 -24.088144
3895000000 -41.781864 72.028427 -1.3550537 114.53096 -1.356038 114.47862 -34.918804 -23.174374
3896000000 -40.706535 62.061161 -1.355239 111.85817 -1.356401 111.84381 -34.594238 -20.935127
3897000000 -40.176395 51.435902 -1.3566723 109.21682 -1.352721 109.18595 -34.263592 -20.50844
3898000000 -40.077332 47.44836 -1.3589742 106.5768 -1.3556609 106.53786 -33.997143 -19.619574
3899000000 -38.625252 38.044411 -1.354867 103.92733 -1.3558303 103.91154 -33.909122 -18.540758
3900000000 -38.726295 33.230747 -1.3581319 101.28056 -1.3540151 101.25138 -33.565063 -18.469591
3901000000 -38.075138 26.718466 -1.3560005 98.609734 -1.3556433 98.599869 -33.012115 -18.546707
3902000000 -37.558655 24.034452 -1.3591594 95.985435 -1.3514568 95.916306 -33.184818 -17.339293
3903000000 -37.44949 16.250422 -1.3609961 93.313919 -1.3526863 93.285141 -32.840221 -18.850132
3904000000 -37.047371 13.544847 -1.3602968 90.653458 -1.3564483 90.623009 -32.391125 -18.991852
3905000000 -36.359444 7.473896 -1.356915 87.998413 -1.3550406 87.994728 -32.147686 -18.509975
3906000000 -36.461346 1.1917561 -1.3602997 85.367615 -1.3597544 85.337578 -32.056488 -20.098873
3907000000 -35.97057 -2.966296 -1.3618342 82.718697 -1.3576318 82.681084 -31.780031 -21.153898
3908000000 -35.312046 -7.4321527 -1.3641768 80.061661 -1.3582069 80.047661 -31.642393 -21.452391
3909000000 -35.188789 -11.455309 -1.3613826 77.42231 -1.3566642 77.401711 -31.576027 -21.402178
3910000000 -34.877533 -17.521866 -1.35888 74.751831 -1.3591338 74.726082 -31.435406 -22.716419
3911000000 -34.928318 -20.137035 -1.3658729 72.099411 -1.3616312 72.09935 -31.31282 -23.006962
3912000000 -34.397377 -23.580309 -1.3631887 69.465042 -1.3603871 69.439865 -31.110329 -23.699032
3913000000 -34.536678 -27.471685 -1.3652213 66.832626 -1.3601123 66.800117 -30.947346 -24.597563
3914000000 -33.794209 -31.615652 -1.3602037 64.17318 -1.3600171 64.161743 -30.817261 -26.733433
3915000000 -33.743176 -36.179585 -1.3645346 61.51231 -1.3638829 61.512295 -30.664167 -27.449984
3916000000 -33.733738 -39.541595 -1.3636562 58.860664 -1.3630137 58.826199 -30.785406 -28.820505
3917000000 -33.334255 -43.724831 -1.3616358 56.191353 -1.3625603 56.195965 -30.624668 -30.094002
3918000000 -33.412853 -46.815594 -1.3668464 53.563255 -1.3559355 53.55566 -30.666187 -30.763336
3919000000 -33.333908 -50.380093 -1.3676664 50.888588 -1.3622606 50.892563 -30.619268 -33.586128
3920000000 -33.149307 -53.639511 -1.3643628 48.283791 -1.3623039 48.251137 -30.512318 -34.674625
3921000000 -33.272018 -57.899452 -1.3689079 45.597614 -1.3590071 45.617744 -30.454212 -36.262989
3922000000 -33.018635 -62.205807 -1.3647825 42.954746 -1.3641396 42.969398 -30.42606 -37.515289
3923000000 -32.931084 -63.935043 -1.3644089 40.335304 -1.3620683 40.322735 -30.51981 -38.327339
3924000000 -32.880405 -68.902618 -1.3689867 37.669933 -1.3633702 37.656399 -30.537935 -39.85511
3925000000 -32.88826 -73.29184 -1.3593466 35.02301 -1.3605291 35.001328 -30.372402 -42.198509
3926000000 -32.830627 -74.85318 -1.3670501 32.370895 -1.3651237 32.381824 -30.34771 -43.424129
3927000000 -32.606937 -80.690582 -1.364333 29.726793 -1.3575211 29.703075 -30.488218 -45.854797
3928000000 -33.056225 -82.242027 -1.3655356 27.07122 -1.3617013 27.055147 -30.575466 -46.51355
3929000000 -33.005844 -86.860672 -1.367794 24.411999 -1.3576947 24.411415 -30.516996 -47.847134
3930000000 -32.811954 -90.560799 -1.3649071 21.768877 -1.3593547 21.735979 -30.720715 -50.400749
3931000000 -32.930141 -94.109138 -1.3626053 19.123442 -1.3654939 19.118771 -30.734747 -50.904312
3932000000 -33.090218 -97.14566 -1.3721359 16.487698 -1.3634564 16.435398 -30.974915 -51.561665
3933000000 -33.095554 -99.186256 -1.367322 13.817256 -1.3637345 13.792899 -31.000462 -52.5467
3934000000 -33.220848 -103.73785 -1.3656306 11.149673 -1.3656094 11.171521 -31.055794 -55.342918
3935000000 -33.228844 -106.14658 -1.3645811 8.5249014 -1.3657944 8.5065632 -31.232708 -56.981228
3936000000 -33.156788 -109.07202 -1.3682034 5.8624845 -1.3628122 5.8786101 -31.574263 -57.969757
3937000000 -33.241623 -111.98115 -1.3683223 3.2258332 -1.363255 3.2058179 -31.578045 -58.339619
3938000000 -33.568043 -116.21786 -1.3621089 0.57910359 -1.3614693 0.57044506 -31.592421 -60.932556
3939000000 -33.739662 -118.5852 -1.3681353 -2.0785351 -1.3627629 -2.0923829 -32.040348 -61.37516
3940000000 -33.874294 -123.42903 -1.3660182 -4.7161345 -1.3591306 -4.7063036 -32.039917 -62.601852
3941000000 -34.182091 -123.99375 -1.3696779 -7.3583088 -1.3656197 -7.3908334 -32.255249 -63.74807
3942000000 -34.299156 -128.75276 -1.3695384 -10.041285 -1.3648143 -10.03178 -32.464485 -63.985146
3943000000 -34.432415 -133.02998 -1.3664007 -12.648179 -1.3643373 -12.697031 -32.696007 -66.174431
3944000000 -34.638287 -136.15355 -1.3633064 -15.33934 -1.3646668 -15.34123 -33.080757 -66.191292
3945000000 -34.960232 -138.19809 -1.3678342 -17.962074 -1.3611913 -17.993607 -33.361313 -67.600388
3946000000 -35.265247 -142.72319 -1.368346 -20.622143 -1.3637341 -20.627087 -33.716827 -67.734154
3947000000 -35.716446 -145.55394 -1.3676891 -23.286049 -1.3639439 -23.265657 -33.675068 -68.373055
3948000000 -35.849667 -149.02115 -1.3686618 -25.928455 -1.3665564 -25.936092 -34.000641 -67.990372
3949000000 -36.520592 -153.48911 -1.3673196 -28.578098 -1.3676281 -28.602077 -34.420986 -67.786026
3950000000 -36.788971 -156.56715 -1.366711 -31.223284 -1.3642479 -31.229952 -34.793674 -69.708199
3951000000 -37.004116 -161.81972 -1.3674525 -33.870991 -1.3621508 -33.873867 -35.253784 -66.523575
3952000000 -37.69812 -166.35049 -1.3703365 -36.539787 -1.3598621 -36.504333 -35.297581 -66.780136
3953000000 -37.958344 -169.37044 -1.368082 -39.200924 -1.3685908 -39.200466 -35.566635 -66.110252
3954000000 -38.611198 -175.09962 -1.3696413 -41.827408 -1.3707688 -41.819763 -35.825703 -65.909935
3955000000 -39.468773 -179.87137 -1.3674178 -44.471325 -1.3682559 -44.499546 -36.168716 -65.31115
3956000000 -39.888481 175.37923 -1.3638691 -47.134335 -1.3646194 -47.117142 -36.779106 -63.080765
3957000000 -40.035835 172.6675 -1.3685153 -49.763649 -1.36458 -49.799244 -37.322598 -61.316807
3958000000 -41.126221 165.95213 -1.3693628 -52.436283 -1.3650652 -52.398735 -37.5938 -61.026711
3959000000 -41.738396 158.3614 -1.3716747 -55.095276 -1.3664104 -55.070377 -37.896812 -59.361805
3960000000 -42.751953 149.31927 -1.3633355 -57.702381 -1.3669096 -57.749706 -37.887409 -55.518181
3961000000 -42.927082 146.89429 -1.3709641 -60.355515 -1.3638574 -60.396843 -38.540565 -51.407364
3962000000 -44.018543 136.89084 -1.3683573 -63.02232 -1.3650011 -63.06057 -38.261742 -50.144218
3963000000 -43.890934 131.61946 -1.3701473 -65.669411 -1.3670691 -65.703888 -38.930695 -48.394581
3964000000 -45.256466 116.95798 -1.3697126 -68.328873 -1.3644379 -68.328835 -38.866428 -43.765022
3965000000 -45.934364 103.00397 -1.368169 -70.94558 -1.3669003 -71.045265 -38.389317 -41.678173
3966000000 -45.469673 93.347336 -1.3664497 -73.604866 -1.3699991 -73.646484 -38.646751 -40.930969
3967000000 -45.873062 82.940262 -1.3731585 -76.267563 -1.3653957 -76.288368 -38.535484 -37.562534
3968000000 -46.686417 70.381279 -1.3679019 -78.923538 -1.365306 -78.945694 -38.068371 -33.940018
3969000000 -46.879417 66.342239 -1.3716477 -81.554535 -1.3708085 -81.602455 -37.793911 -33.256077
3970000000 -46.801846 52.062595 -1.369597 -84.233322 -1.3673866 -84.251892 -38.272739 -31.350245
3971000000 -47.230911 35.656971 -1.3695115 -86.859238 -1.3675504 -86.915726 -37.574776 -27.731781
3972000000 -45.605808 30.708193 -1.3715508 -89.52961 -1.3673909 -89.568794 -36.802666 -24.899803
3973000000 -45.811714 18.013344 -1.368446 -92.168602 -1.3680779 -92.200264 -37.018391 -25.186232
3974000000 -44.448578 8.7870159 -1.3751345 -94.825455 -1.3656597 -94.822456 -36.859142 -24.652788
3975000000 -43.659256 3.4671729 -1.3729937 -97.469017 -1.3681619 -97.474136 -36.391548 -22.985121
3976000000 -43.728477 -7.3770413 -1.3748709 -100.12233 -1.3667437 -100.14568 -36.244835 -24.780605
3977000000 -42.666676 -13.198479 -1.3718511 -102.78824 -1.3670231 -102.76839 -35.817841 -22.879997
3978000000 -42.272804 -19.97331 -1.3693898 -105.42248 -1.3687178 -105.45741 -35.745113 -22.300676
3979000000 -41.51585 -22.891384 -1.3701506 -108.06405 -1.3688111 -108.08531 -35.316319 -21.910042
3980000000 -41.617077 -31.239985 -1.3753654 -110.73257 -1.3706896 -110.73132 -34.978485 -23.932659
3981000000 -40.604523 -36.975895 -1.3703649 -113.36948 -1.3729248 -113.40757 -35.211456 -24.729389
3982000000 -40.462879 -43.493011 -1.3722924 -116.01665 -1.3712749 -116.05112 -34.850872 -24.023411
3983000000 -39.935692 -45.273544 -1.3720872 -118.66586 -1.372313 -118.68273 -34.732861 -23.823072
3984000000 -39.662594 -51.093437 -1.3776286 -121.29077 -1.3694909 -121.36971 -34.524315 -25.668205
3985000000 -39.410118 -59.069096 -1.3724494 -123.96311 -1.3693492 -123.97937 -34.201141 -27.136106
3986000000 -39.103115 -60.95179 -1.3752733 -126.61361 -1.3755225 -126.65322 -34.096096 -27.626711
3987000000 -38.718281 -65.007095 -1.3749235 -129.27873 -1.3682673 -129.28162 -33.690853 -28.587912
3988000000 -38.056286 -64.886719 -1.3760939 -131.91191 -1.3715476 -131.94743 -33.726067 -29.206713
3989000000 -38.132957 -73.606941 -1.3733236 -134.57864 -1.3759019 -134.58743 -33.667603 -31.269545
3990000000 -37.663467 -74.693794 -1.3740059 -137.21616 -1.3706985 -137.22917 -33.576134 -33.738354
3991000000 -37.10239 -80.070595 -1.3738929 -139.88002 -1.368402 -139.89145 -33.662865 -33.510845
3992000000 -36.968903 -84.925133 -1.376155 -142.51288 -1.3749714 -142.5312 -33.396782 -33.183685
3993000000 -36.900742 -84.838486 -1.3756472 -145.16731 -1.3724927 -145.20982 -33.679855 -35.731697
3994000000 -37.043816 -90.008148 -1.3762314 -147.85646 -1.3782814 -147.81371 -33.332317 -36.036232
3995000000 -36.943241 -93.885262 -1.3742015 -150.46587 -1.3746165 -150.50769 -33.446129 -38.16523
3996000000 -36.420269 -95.858612 -1.3792962 -153.10056 -1.3688945 -153.1727 -33.488567 -38.6035
3997000000 -36.682747 -100.5993 -1.3756422 -155.75769 -1.3733094 -155.80687 -33.14426 -41.592697
3998000000 -36.374638 -102.75893 -1.3798108 -158.41997 -1.3767086 -158.43765 -33.263592 -41.33662
3999000000 -36.720474 -106.27847 -1.3753842 -161.07779 -1.3725264 -161.09203 -33.385078 -44.611469
4000000000 -36.45932 -111.53291 -1.377758 -163.72575 -1.3718777 -163.74852 -33.412304 -45.091187
4001000000 -36.455105 -112.97726 -1.3767389 -166.38332 -1.3735995 -166.36459 -33.425991 -45.998508
4002000000 -36.395267 -114.75592 -1.3740933 -169.0195 -1.3763497 -169.06284 -33.619926 -47.189762
4003000000 -36.582596 -117.79076 -1.3766863 -171.67075 -1.373732 -171.68462 -33.669521 -49.505093
4004000000 -36.692177 -122.00031 -1.3746083 -174.33716 -1.3718987 -174.33543 -33.848064 -49.957088
4005000000 -36.463905 -123.49821 -1.3803457 -176.90712 -1.3754056 -176.9861 -33.595501 -50.362461
4006000000 -36.370926 -130.84193 -1.3766884 -179.63939 -1.3733978 -179.64288 -34.15559 -49.066235
4007000000 -37.082932 -132.42014 -1.3756596 177.73419 -1.3757324 177.71474 -34.311054 -52.088402
4008000000 -37.192562 -133.95192 -1.3782789 175.06941 -1.3761954 175.07358 -34.302002 -53.814102
4009000000 -37.316833 -137.30569 -1.3792546 172.44922 -1.3719029 172.40898 -34.76384 -54.322182
4010000000 -37.678844 -141.88988 -1.3769034 169.7901 -1.3743948 169.73047 -34.600456 -55.769382
4011000000 -37.669476 -145.88182 -1.3786013 167.11848 -1.3751458 167.10712 -35.040001 -55.825272
4012000000 -37.521324 -149.24495 -1.3817592 164.50223 -1.3750381 164.47617 -35.409775 -57.299358
4013000000 -38.218063 -151.0898 -1.3832471 161.83479 -1.3763412 161.82471 -35.478596 -58.975269
4014000000 -38.643707 -153.19608 -1.3766998 159.18398 -1.3801562 159.17723 -35.731205 -57.957066
4015000000 -38.831448 -160.91187 -1.380005 156.52339 -1.379315 156.50169 -35.940147 -57.765411
4016000000 -39.132774 -162.27559 -1.3778497 153.86496 -1.3771412 153.86778 -36.535408 -59.401218
4017000000 -39.010525 -164.58524 -1.3800217 151.22479 -1.377105 151.21236 -37.226482 -58.57859
4018000000 -39.667938 -173.97725 -1.3747629 148.59 -1.3774352 148.54922 -37.043301 -58.07589
4019000000 -40.277847 -171.78537 -1.3771319 145.92296 -1.3793631 145.88596 -37.346809 -57.776989
4020000000 -40.032467 -177.88835 -1.3794092 143.27617 -1.3763633 143.26862 -37.860134 -57.385384
4021000000 -41.254086 178.27795 -1.3807769 140.63629 -1.3753519 140.61081 -38.713894 -56.353481
4022000000 -41.616692 170.98016 -1.3818902 137.9874 -1.375396 137.9707 -38.828972 -57.680668
4023000000 -41.98156 171.40919 -1.3775315 135.33104 -1.3746967 135.31104 -39.2584 -52.998451
4024000000 -42.725803 163.1255 -1.379963 132.69681 -1.3833618 132.66925 -39.700859 -56.289063
4025000000 -43.292397 160.34485 -1.3785487 130.05923 -1.3813924 129.99864 -39.563862 -52.155159
4026000000 -43.812325 150.02736 -1.3780665 127.36457 -1.3777381 127.37534 -40.051579 -48.011841
4027000000 -45.26635 146.53372 -1.3779767 124.74512 -1.3797827 124.68996 -40.536701 -46.472046
4028000000 -45.895752 138.42403 -1.3795747 122.0794 -1.3754504 122.05914 -40.717426 -43.516743
4029000000 -46.838631 135.22249 -1.3788755 119.42695 -1.3758411 119.42791 -41.048458 -41.004616
4030000000 -47.838715 129.72626 -1.3824378 116.79219 -1.3808264 116.73046 -40.967365 -38.893112
4031000000 -48.430729 126.62799 -1.3850284 114.11742 -1.3757122 114.08414 -41.114433 -33.212009
4032000000 -49.770241 126.76067 -1.3781103 111.50352 -1.3790672 111.46646 -41.098259 -27.54137
4033000000 -52.785439 95.757767 -1.382061 108.83576 -1.3787478 108.77775 -41.234276 -25.466837
4034000000 -53.462746 89.521896 -1.3817692 106.17535 -1.3801373 106.17786 -41.148693 -23.295586
4035000000 -53.758759 78.477554 -1.383459 103.53886 -1.377142 103.51452 -40.206261 -17.129307
4036000000 -52.964844 47.287273 -1.3806883 100.87949 -1.38234 100.81664 -40.102383 -19.473127
4037000000 -54.1689 30.999172 -1.3831379 98.247284 -1.3799907 98.202095 -40.118294 -14.940389
4038000000 -52.325241 3.7121933 -1.3852776 95.567711 -1.3769439 95.5616 -39.797356 -13.826548
4039000000 -49.541653 -22.124596 -1.3841372 92.938896 -1.3803329 92.900909 -39.168274 -9.1336575
4040000000 -49.495598 -29.143003 -1.3841389 90.277962 -1.3765018 90.253113 -38.666901 -11.186821
4041000000 -48.50354 -34.146374 -1.3830618 87.639664 -1.3821055 87.620888 -38.47575 -7.5878077
4042000000 -46.552708 -44.181534 -1.3846676 85.005928 -1.3784869 84.956474 -38.261585 -7.9615469
4043000000 -46.050915 -49.53896 -1.3868526 82.331696 -1.3838954 82.290955 -38.326504 -8.5877914
4044000000 -44.377178 -52.992336 -1.3833113 79.682823 -1.3802263 79.640167 -37.547581 -7.5475368
4045000000 -43.787235 -62.237415 -1.3876799 77.029259 -1.3814824 77.000015 -37.13744 -8.2524424
4046000000 -43.028812 -63.204823 -1.3877313 74.369858 -1.380752 74.381058 -36.626003 -4.3335719
4047000000 -41.999073 -63.944962 -1.3841289 71.748459 -1.3813807 71.727531 -36.068478 -4.9202771
4048000000 -41.548756 -66.08799 -1.3879291 69.100624 -1.3803846 69.049187 -35.918804 -5.4677
4049000000 -40.707462 -75.055954 -1.38556 66.419769 -1.3786063 66.404526 -35.818546 -8.5720339
4050000000 -40.316994 -81.78019 -1.3871059 63.762127 -1.3826802 63.744011 -35.708454 -6.7546582
4051000000 -39.710354 -81.397453 -1.3842069 61.109097 -1.384078 61.115524 -35.110752 -7.8503909
4052000000 -39.305672 -84.077202 -1.3854678 58.499928 -1.3792496 58.45853 -34.732128 -10.347295
4053000000 -38.966373 -86.584724 -1.3849757 55.829491 -1.3815449 55.810886 -34.919022 -7.4596295
4054000000 -38.525291 -91.55648 -1.3860619 53.192459 -1.3810394 53.14846 -34.33514 -9.5162287
4055000000 -38.164738 -94.472443 -1.3835511 50.524433 -1.3877333 50.516747 -34.488132 -10.356837
4056000000 -37.667286 -97.565125 -1.3866713 47.866898 -1.3835138 47.848522 -34.220379 -12.005237
4057000000 -37.436584 -100.43504 -1.3847542 45.229305 -1.3863653 45.186749 -34.170483 -10.700347
4058000000 -37.527798 -105.08572 -1.3816197 42.575348 -1.3864334 42.556896 -33.837051 -12.1297
4059000000 -37.021435 -109.04865 -1.3840371 39.931572 -1.3861918 39.892712 -33.782139 -13.445169
4060000000 -36.975716 -112.31853 -1.3928154 37.30732 -1.3844248 37.260895 -33.630116 -13.429422
4061000000 -36.918209 -115.99451 -1.385898 34.633827 -1.3818446 34.60046 -33.494591 -13.23852
4062000000 -36.918663 -120.59751 -1.3877833 31.980558 -1.3816966 31.943609 -33.406498 -14.45677
4063000000 -36.856022 -123.27502 -1.3886389 29.31748 -1.3878973 29.318485 -33.285137 -14.357109
4064000000 -36.381947 -127.38119 -1.3899111 26.686785 -1.3849807 26.62631 -33.382282 -16.068939
4065000000 -36.627037 -130.2039 -1.3909686 24.027674 -1.3868544 24.017523 -33.352772 -17.040817
4066000000 -36.201866 -135.1947 -1.3902223 21.400288 -1.3814276 21.368687 -33.362488 -18.269056
4067000000 -36.333549 -140.74443 -1.3890177 18.752323 -1.3887497 18.68355 -33.046368 -18.005819
4068000000 -35.98608 -142.21384 -1.3882836 16.091337 -1.3867779 16.06122 -33.191551 -17.896137
4069000000 -36.110756 -146.69676 -1.3889383 13.448821 -1.3821121 13.388148 -33.17868 -18.381197
4070000000 -36.038219 -152.13101 -1.3925121 10.814306 -1.3827585 10.758471 -33.084629 -19.80505
4071000000 -35.933022 -157.11418 -1.3881962 8.1323891 -1.3845983 8.0985231 -32.956856 -20.079426
4072000000 -35.858871 -160.70422 -1.3902608 5.5038128 -1.3886254 5.4524732 -33.069019 -19.297029
4073000000 -35.853359 -165.43837 -1.3864038 2.8361745 -1.3853464 2.8256361 -32.936607 -18.75551
4074000000 -35.653851 -168.35939 -1.3887024 0.20597103 -1.3869182 0.1659672 -33.09906 -20.398277
4075000000 -35.467484 -174.21915 -1.3892595 -2.4766583 -1.3852065 -2.4863794 -32.93121 -20.940744
4076000000 -35.807083 -179.66431 -1.3892124 -5.1113429 -1.3877437 -5.1271567 -33.056999 -21.085135
4077000000 -35.534676 177.23434 -1.3876457 -7.7696981 -1.3893492 -7.7830758 -33.240578 -19.40741
4078000000 -35.281609 172.16064 -1.3870237 -10.405335 -1.3871362 -10.419082 -33.01791 -21.067293
4079000000 -35.461117 166.18837 -1.3892277 -13.062093 -1.3875196 -13.049112 -33.358799 -22.086061
4080000000 -35.472691 164.89244 -1.3911437 -15.725986 -1.3880031 -15.764598 -33.075706 -22.213221
4081000000 -35.358002 158.38692 -1.3896793 -18.346535 -1.3922032 -18.370951 -33.215134 -21.867144
4082000000 -35.18195 152.21864 -1.389792 -21.030006 -1.3916628 -21.016956 -33.289276 -20.889683
4083000000 -35.343033 147.78969 -1.391405 -23.6642 -1.3910855 -23.664516 -33.230412 -22.694689
4084000000 -34.979694 141.80731 -1.3886688 -26.322626 -1.3906661 -26.329325 -33.17831 -23.028137
4085000000 -35.21077 136.65121 -1.394837 -28.955994 -1.386816 -28.983181 -33.294754 -23.618288
4086000000 -35.248203 132.77339 -1.3940934 -31.626251 -1.3885912 -31.599905 -33.248188 -23.268948
4087000000 -35.232643 130.08768 -1.3908145 -34.258705 -1.3898501 -34.274311 -33.220596 -22.476742
4088000000 -35.038391 123.74303 -1.3922079 -36.916874 -1.3881503 -36.917671 -33.064919 -23.540133
4089000000 -35.535175 121.62698 -1.3946429 -39.550152 -1.3910248 -39.567577 -33.195618 -22.219513
4090000000 -35.092228 115.28905 -1.3935716 -42.217834 -1.3899831 -42.228924 -32.871426 -22.702175
4091000000 -35.008709 109.92676 -1.3926748 -44.853825 -1.389186 -44.872524 -32.786209 -23.031532
4092000000 -35.211552 106.27103 -1.3908679 -47.506931 -1.3941654 -47.544739 -32.833977 -22.29191
4093000000 -35.131416 100.19962 -1.3910766 -50.165272 -1.3925955 -50.164673 -32.662296 -23.492964
4094000000 -35.074287 97.107185 -1.3900037 -52.788235 -1.391757 -52.82407 -32.682865 -21.234837
4095000000 -35.035225 92.246689 -1.3936505 -55.454998 -1.3900194 -55.465698 -32.694984 -22.817749
4096000000 -35.197506 84.767105 -1.3971111 -58.104809 -1.3905107 -58.159061 -32.69006 -22.014502
4097000000 -35.329296 81.519691 -1.3972882 -60.772312 -1.3921832 -60.782368 -32.474819 -22.870478
4098000000 -35.233612 76.763687 -1.3929969 -63.416061 -1.3954495 -63.449665 -32.389515 -22.724203
4099000000 -35.062862 71.454803 -1.3935766 -66.067017 -1.3940338 -66.104149 -32.202587 -22.682991
4100000000 -35.312077 66.971413 -1.3962882 -68.713135 -1.3959897 -68.722427 -32.366428 -24.098534
4101000000 -34.953728 61.171345 -1.3967655 -71.356445 -1.3891457 -71.369225 -32.247013 -23.559731
4102000000 -35.046734 55.440598 -1.3949317 -74.008423 -1.3880588 -74.036156 -31.999046 -22.775864
4103000000 -35.152935 52.674999 -1.3956156 -76.635201 -1.3957644 -76.693481 -31.98118 -23.867785
4104000000 -34.856224 45.214836 -1.3945673 -79.300713 -1.394341 -79.314392 -31.885517 -22.806522
4105000000 -34.988491 41.339138 -1.395629 -81.925255 -1.3936751 -81.975006 -31.716707 -24.367439
4106000000 -34.938965 36.990829 -1.396472 -84.613014 -1.3928952 -84.609253 -31.71176 -25.019938
4107000000 -34.728832 31.721479 -1.3984343 -87.226654 -1.3932613 -87.26564 -31.846914 -25.763512
4108000000 -34.847874 26.68824 -1.399192 -89.905594 -1.3914365 -89.924889 -31.495197 -26.677448
4109000000 -34.903519 20.532036 -1.3973039 -92.544624 -1.392831 -92.603279 -31.350727 -26.671087
4110000000 -34.586716 16.362226 -1.3928621 -95.204071 -1.3965973 -95.223358 -31.110693 -27.388624
4111000000 -34.581581 11.299497 -1.3962599 -97.863388 -1.3973494 -97.858994 -31.140535 -27.54812
4112000000 -34.319492 6.8701258 -1.3952818 -100.50685 -1.3965752 -100.54655 -31.063601 -29.524046
4113000000 -34.425064 5.4213357 -1.3989819 -103.15147 -1.3984404 -103.17396 -31.248327 -30.2024
4114000000 -34.415298 -0.73765177 -1.3968637 -105.78521 -1.3934311 -105.84305 -30.967033 -29.865593
4115000000 -34.184597 -5.8515797 -1.3993825 -108.45527 -1.3969369 -108.4595 -30.753796 -31.258385
4116000000 -34.167183 -9.7094822 -1.3965484 -111.09315 -1.3994972 -111.13242 -30.912674 -32.215752
4117000000 -34.189472 -13.087596 -1.4006191 -113.74411 -1.3957219 -113.76987 -30.686695 -33.665958
4118000000 -34.10194 -15.747961 -1.4027507 -116.41545 -1.3948385 -116.4436 -30.764688 -33.312218
4119000000 -33.935982 -21.614641 -1.4009136 -119.0389 -1.3952557 -119.09113 -30.834396 -35.226715
4120000000 -33.973629 -25.603065 -1.3939549 -121.71709 -1.3971486 -121.71593 -30.717728 -36.323479
4121000000 -33.996929 -29.21649 -1.4004562 -124.34291 -1.4009351 -124.33585 -30.673697 -37.433205
4122000000 -33.874222 -35.10149 -1.3975189 -126.98853 -1.3950719 -127.03497 -30.612547 -37.7589
4123000000 -33.949299 -38.808342 -1.3967948 -129.65584 -1.4021322 -129.69136 -30.767691 -39.59211
4124000000 -34.121868 -41.796066 -1.3964398 -132.29231 -1.4016178 -132.33011 -30.776775 -40.70689
4125000000 -34.081779 -44.835049 -1.4044409 -134.94519 -1.3988601 -134.9705 -30.748865 -41.318478
4126000000 -33.940052 -49.220726 -1.4000852 -137.59425 -1.3985826 -137.61618 -30.734306 -42.670776
4127000000 -34.044933 -53.685467 -1.4040263 -140.24159 -1.3936509 -140.26242 -30.604279 -43.657204
4128000000 -34.153843 -57.526489 -1.398978 -142.90849 -1.3956602 -142.93965 -30.906723 -46.317997
4129000000 -34.415844 -60.537354 -1.4023156 -145.54294 -1.3996829 -145.55588 -31.093609 -46.702999
4130000000 -34.504303 -65.86113 -1.395999 -148.17227 -1.3937533 -148.20634 -30.841553 -47.933666
4131000000 -34.296349 -69.503433 -1.4023517 -150.84109 -1.3986998 -150.86702 -30.956669 -48.611702
4132000000 -34.44154 -73.938629 -1.4041461 -153.50426 -1.3984247 -153.5266 -30.96232 -49.166309
4133000000 -34.616043 -76.498344 -1.3985314 -156.12036 -1.4003576 -156.15881 -30.959661 -50.544773
4134000000 -34.730724 -79.893272 -1.4010277 -158.77386 -1.3994449 -158.80133 -31.091692 -50.904602
4135000000 -35.073029 -87.232018 -1.4020846 -161.45856 -1.3989905 -161.47499 -31.298948 -53.275108
4136000000 -34.902584 -89.997963 -1.4041196 -164.11108 -1.4021972 -164.10124 -31.606716 -54.812073
4137000000 -35.233391 -93.793533 -1.4021733 -166.73476 -1.3945569 -166.74525 -31.282579 -55.599819
4138000000 -35.388668 -100.77974 -1.3999959 -169.3996 -1.400056 -169.3952 -31.577168 -55.988087
4139000000 -35.076817 -104.36044 -1.3991863 -172.04434 -1.3998115 -172.0779 -31.749117 -56.617462
4140000000 -35.265171 -108.19589 -1.4005376 -174.67558 -1.3968054 -174.69223 -31.778934 -58.882576
4141000000 -35.498032 -111.78719 -1.4005955 -177.33881 -1.405163 -177.3597 -31.746817 -59.523331
4142000000 -36.022022 -116.05188 -1.4007106 -179.95996 -1.4015956 179.99529 -32.07523 -60.401855
4143000000 -36.059387 -121.74059 -1.4056053 177.37451 -1.398544 177.33926 -32.251835 -61.985626
4144000000 -35.983929 -126.98763 -1.4037019 174.74283 -1.4007828 174.66971 -32.473186 -61.656384
4145000000 -36.459614 -132.15239 -1.4011388 172.06 -1.4005038 172.00392 -32.491489 -61.761002
4146000000 -36.455994 -136.84174 -1.4026649 169.41272 -1.4010327 169.42244 -32.705242 -61.792271
4147000000 -36.380005 -139.51782 -1.4019417 166.76373 -1.3977629 166.75137 -32.728355 -62.972118
4148000000 -37.08427 -144.6701 -1.4037641 164.0816 -1.3979814 164.12425 -33.074455 -63.988075
4149000000 -37.1912 -152.04395 -1.3982897 161.46645 -1.398922 161.43962 -33.313755 -64.23407
4150000000 -37.60746 -155.80154 -1.4038578 158.79716 -1.3980415 158.79784 -33.591278 -63.010975
4151000000 -38.030357 -161.58318 -1.40501 156.14456 -1.3993639 156.16281 -33.894985 -63.92947
4152000000 -38.060371 -167.40318 -1.4021118 153.51033 -1.398788 153.52145 -34.045139 -62.418484
4153000000 -38.124241 -171.13391 -1.3986033 150.8775 -1.3975296 150.85461 -34.298611 -64.245132
4154000000 -38.712334 -176.42889 -1.3987823 148.19841 -1.3973 148.16641 -34.771889 -61.032768
4155000000 -38.805832 177.42865 -1.403012 145.5778 -1.401913 145.55367 -34.674465 -61.623516
4156000000 -39.036098 171.88963 -1.3991848 142.92805 -1.4026767 142.87135 -34.787193 -58.848732
4157000000 -39.416897 164.77504 -1.4005784 140.28052 -1.4047867 140.26332 -34.928387 -60.057983
4158000000 -40.19799 161.28146 -1.4053563 137.61406 -1.4011617 137.60626 -35.397926 -58.23801
4159000000 -40.62727 156.01601 -1.4001685 134.96788 -1.4032334 134.95941 -35.940929 -56.555779
4160000000 -40.968124 146.04454 -1.4029902 132.33478 -1.4006234 132.29645 -35.8895 -54.783413
4161000000 -41.410973 136.60612 -1.4044343 129.67148 -1.4020942 129.62317 -36.038544 -53.868954
4162000000 -41.688114 130.94644 -1.4013454 126.98667 -1.4015799 126.99271 -35.883869 -49.641708
4163000000 -42.011215 119.94118 -1.4086052 124.34216 -1.4034551 124.33342 -36.110241 -48.602489
4164000000 -41.87001 114.09292 -1.4068695 121.68938 -1.4025365 121.72058 -36.373699 -47.476368
4165000000 -41.818066 106.56731 -1.39961 119.05435 -1.4051495 119.0324 -36.018555 -44.234295
4166000000 -42.821545 95.68219 -1.4059337 116.37492 -1.4007814 116.40149 -36.149128 -41.501312
4167000000 -42.545574 82.591797 -1.4073817 113.75969 -1.4000081 113.7004 -36.144547 -40.294842
4168000000 -42.301498 72.446365 -1.4020989 111.10863 -1.3994153 111.07636 -35.855869 -37.017975
4169000000 -42.051582 64.643143 -1.4042308 108.46056 -1.40365 108.42257 -35.934235 -36.432083
4170000000 -41.644688 59.548248 -1.4074826 105.78774 -1.401986 105.80553 -35.466927 -34.260159
4171000000 -41.438255 49.915253 -1.4042391 103.18855 -1.4031301 103.11245 -35.706608 -32.209938
4172000000 -40.577606 41.488243 -1.4019942 100.49113 -1.401453 100.50104 -35.393799 -31.343647
4173000000 -40.675125 34.002556 -1.4081681 97.864731 -1.3997641 97.804222 -35.492962 -29.878057
4174000000 -40.51355 30.724821 -1.4110298 95.217514 -1.4026692 95.163094 -35.114162 -28.480703
4175000000 -39.255592 20.876963 -1.4041525 92.57444 -1.409335 92.513069 -34.481506 -29.494833
4176000000 -39.271656 19.594631 -1.4064096 89.937935 -1.4015076 89.89257 -34.390793 -27.723604
4177000000 -38.633732 12.222456 -1.4061842 87.256454 -1.4039136 87.21508 -34.25956 -27.417936
4178000000 -37.968819 7.5010195 -1.4129149 84.614838 -1.4058428 84.570435 -33.980755 -26.913576
4179000000 -38.053535 2.9163365 -1.410619 81.948036 -1.4034133 81.915115 -33.925747 -26.447763
4180000000 -37.664185 -3.8996329 -1.4108475 79.280685 -1.4035177 79.282867 -33.492359 -29.336977
4181000000 -36.786163 -5.250946 -1.4051813 76.661018 -1.403493 76.63752 -33.280079 -25.172468
4182000000 -37.039265 -11.969586 -1.4070739 73.988174 -1.4064261 73.963371 -33.178391 -27.585686
4183000000 -36.650444 -15.485595 -1.4117941 71.371307 -1.4061795 71.332436 -32.888168 -28.617062
4184000000 -36.012707 -17.990097 -1.4107784 68.703796 -1.4038088 68.695061 -32.653179 -30.859922
4185000000 -36.209354 -23.902142 -1.4112011 66.078949 -1.4066784 66.018532 -32.661858 -29.726503
4186000000 -35.698227 -26.783998 -1.4073373 63.396812 -1.4118768 63.360783 -32.31913 -31.328381
4187000000 -35.310955 -30.11829 -1.409471 60.747326 -1.4034376 60.735012 -32.268131 -31.204304
4188000000 -35.068501 -37.422314 -1.4060758 58.073296 -1.40605 58.070145 -31.949739 -33.61895
4189000000 -35.175926 -39.821751 -1.4098861 55.435898 -1.4071809 55.424957 -31.97257 -34.861202
4190000000 -34.886074 -41.564129 -1.4104116 52.813683 -1.4063842 52.772175 -31.82892 -34.145443
4191000000 -34.764874 -49.054516 -1.4079849 50.148289 -1.4121548 50.106373 -31.640509 -36.892719
4192000000 -34.633808 -51.048958 -1.4112383 47.501511 -1.405899 47.504292 -31.506235 -37.290253
4193000000 -34.504108 -55.054897 -1.4082801 44.853199 -1.4041164 44.844967 -31.372782 -38.060581
4194000000 -34.465694 -60.464516 -1.4112749 42.191887 -1.4105935 42.207409 -31.357216 -40.848843
4195000000 -34.24749 -62.571556 -1.4089601 39.553967 -1.4061023 39.520779 -31.175276 -41.200127
4196000000 -34.206051 -68.689529 -1.409272 36.909443 -1.4080958 36.868664 -31.187525 -42.815609
4197000000 -34.104008 -72.762344 -1.4137411 34.261375 -1.4121646 34.231964 -30.914848 -43.92844
4198000000 -33.930225 -76.002502 -1.4131658 31.621672 -1.4067346 31.573601 -30.843605 -45.145306
4199000000 -33.811638 -78.994011 -1.4139469 28.970879 -1.4053248 28.936077 -30.804674 -47.450909
4200000000 -33.939266 -82.326752 -1.4082867 26.339798 -1.4106287 26.285219 -30.853756 -47.863594
4201000000 -33.864101 -87.214455 -1.4136106 23.659439 -1.4129077 23.651388 -30.6045 -49.317451
4202000000 -33.656265 -88.786911 -1.4156557 20.999882 -1.4124659 20.976088 -30.664921 -51.172062
4203000000 -33.651333 -95.641434 -1.4090073 18.362118 -1.4140737 18.341661 -30.761269 -51.661934
4204000000 -33.676109 -98.388069 -1.4137816 15.720763 -1.4079723 15.7022 -30.588346 -53.43058
4205000000 -33.51453 -101.95969 -1.4145319 13.080378 -1.407624 13.00755 -30.620796 -55.90134
4206000000 -33.516388 -104.04378 -1.4141304 10.423806 -1.4161545 10.38367 -30.680685 -55.628002
4207000000 -33.460453 -108.17168 -1.4156708 7.763258 -1.4091842 7.7515645 -30.637684 -58.53727
4208000000 -33.715302 -112.56451 -1.4142458 5.120738 -1.4119416 5.0807419 -30.803085 -59.664211
4209000000 -33.504723 -116.50308 -1.4183781 2.4703586 -1.4077404 2.4811571 -30.672951 -60.290627
4210000000 -33.495934 -119.77417 -1.414106 -0.1847676 -1.4087846 -0.20997426 -30.900822 -61.88689
4211000000 -33.622932 -123.9998 -1.4145334 -2.8096375 -1.4125106 -2.8695688 -31.025354 -63.138237
4212000000 -33.705059 -127.69301 -1.4106085 -5.4891725 -1.4076856 -5.4765272 -30.909641 -65.599487
4213000000 -33.807011 -131.37013 -1.4171977 -8.135499 -1.4124497 -8.1606712 -31.027058 -65.079697
4214000000 -33.964851 -131.84875 -1.4187233 -10.782006 -1.4136766 -10.792372 -31.180359 -65.754883
4215000000 -34.034489 -136.87776 -1.4151372 -13.428946 -1.4161768 -13.448783 -31.161802 -67.457382
4216000000 -34.251289 -140.61597 -1.4159706 -16.1043 -1.41343 -16.129313 -31.417946 -68.97493
4217000000 -34.075996 -144.02094 -1.416553 -18.722973 -1.4110198 -18.729931 -31.408884 -70.297623
4218000000 -34.400246 -145.40425 -1.4130278 -21.387381 -1.4110614 -21.377714 -31.716814 -71.343445
4219000000 -34.501236 -149.15884 -1.4131289 -24.016716 -1.4157729 -24.052629 -31.858715 -72.390678
4220000000 -34.753529 -153.72591 -1.4178876 -26.651133 -1.4108263 -26.696692 -31.940052 -73.783211
4221000000 -34.930695 -156.25803 -1.418115 -29.322214 -1.412123 -29.34506 -32.393505 -74.764923
4222000000 -35.062828 -159.63435 -1.4171449 -31.971563 -1.4130529 -32.002983 -32.653233 -75.047897
4223000000 -35.607983 -165.2896 -1.4146886 -34.642284 -1.4056654 -34.632008 -32.55661 -77.048386
4224000000 -35.828163 -167.99063 -1.4144007 -37.284199 -1.4130263 -37.266876 -33.058411 -77.825294
4225000000 -36.158909 -171.36227 -1.4095484 -39.906265 -1.4121258 -39.939762 -33.301544 -78.541306
4226000000 -36.560211 -175.66615 -1.4160254 -42.541981 -1.4149277 -42.599251 -33.620956 -79.289078
4227000000 -36.871017 -178.10568 -1.4182191 -45.231461 -1.4128752 -45.229172 -33.962666 -80.940689
4228000000 -36.880447 177.98691 -1.4175159 -47.885117 -1.4139504 -47.896442 -34.296963 -80.035004
4229000000 -37.276497 173.78619 -1.4155431 -50.517441 -1.4116912 -50.531715 -34.329926 -79.164421
4230000000 -37.935669 170.70857 -1.4168587 -53.204643 -1.4139135 -53.185623 -34.715981 -80.855637
4231000000 -38.080639 165.16975 -1.4197763 -55.831863 -1.4193165 -55.866817 -34.919422 -80.027702
4232000000 -38.536026 160.34776 -1.4164982 -58.47506 -1.4145907 -58.497246 -35.010445 -80.678207
4233000000 -39.171104 153.90662 -1.4157718 -61.111553 -1.4125293 -61.15765 -35.732445 -81.526787
4234000000 -39.294281 152.97734 -1.4168572 -63.734352 -1.4170915 -63.825344 -36.036922 -80.34549
4235000000 -39.801582 149.26573 -1.4184459 -66.438248 -1.4108056 -66.417213 -36.614609 -81.563248
4236000000 -39.97961 141.6795 -1.4142702 -69.083183 -1.4153225 -69.090057 -36.712746 -80.562065
4237000000 -40.543869 137.09006 -1.4153777 -71.739967 -1.4150159 -71.741821 -37.052132 -78.111588
4238000000 -41.773304 130.94691 -1.4165562 -74.371544 -1.4170692 -74.410759 -37.592628 -77.712311
4239000000 -41.101746 122.19449 -1.4187994 -77.027206 -1.4189386 -77.059448 -37.646683 -77.654236
4240000000 -42.330639 115.62231 -1.4174548 -79.672523 -1.4188033 -79.702957 -38.043736 -76.718575
4241000000 -42.818302 113.71066 -1.4157327 -82.319992 -1.4160979 -82.324188 -38.815281 -74.58873
4242000000 -44.002811 109.10061 -1.4155273 -84.985046 -1.4169899 -84.983894 -38.666683 -73.242348
4243000000 -43.51498 99.929153 -1.41951 -87.630432 -1.4178047 -87.649811 -38.481754 -71.634354
4244000000 -43.17123 91.952553 -1.4134432 -90.280014 -1.4172375 -90.278351 -39.321148 -70.608681
4245000000 -44.242298 82.156982 -1.4140308 -92.917305 -1.414101 -92.931526 -38.991684 -66.242096
4246000000 -44.544914 77.090393 -1.4166377 -95.560234 -1.4181248 -95.592178 -38.820332 -62.25008
4247000000 -44.738827 67.396133 -1.4165423 -98.257111 -1.4135321 -98.237885 -39.207497 -61.437363
4248000000 -45.669197 54.492832 -1.4166951 -100.90737 -1.4168551 -100.88467 -38.51675 -59.991539
4249000000 -45.644417 45.71666 -1.4164422 -103.52521 -1.4166528 -103.56251 -38.701794 -55.517887
4250000000 -46.616531 38.277882 -1.421634 -106.16689 -1.4194615 -106.20386 -38.620869 -54.18079
4251000000 -46.211372 29.186699 -1.4203769 -108.83185 -1.4180325 -108.8532 -38.38755 -54.799679
4252000000 -46.020443 13.491389 -1.4182435 -111.47169 -1.4130281 -111.49951 -37.89146 -49.974991
4253000000 -45.939972 9.6770163 -1.4188935 -114.11519 -1.4188457 -114.13192 -38.06942 -48.491299
4254000000 -44.633488 -5.5871701 -1.4181721 -116.78196 -1.4120903 -116.80655 -37.069717 -48.368664
4255000000 -46.057388 -10.31657 -1.4198937 -119.43709 -1.4199364 -119.47443 -37.530403 -46.62133
4256000000 -45.250496 -21.703789 -1.4203073 -122.06425 -1.4148875 -122.09523 -36.959633 -43.960144
4257000000 -45.601078 -33.325161 -1.4192605 -124.73331 -1.4248966 -124.76476 -36.888134 -42.825043
4258000000 -44.27528 -36.532413 -1.4198557 -127.39534 -1.4161277 -127.36932 -36.434731 -45.228374
4259000000 -44.065144 -43.631931 -1.4192117 -130.00597 -1.424548 -130.05676 -36.294044 -45.49493
4260000000 -42.836292 -55.501202 -1.4198959 -132.66928 -1.4218506 -132.72307 -35.5937 -47.487835
4261000000 -42.096207 -56.069637 -1.4223975 -135.32272 -1.4162022 -135.3295 -35.683777 -44.224247
4262000000 -42.109558 -63.070034 -1.4235431 -137.99026 -1.4219605 -137.99341 -35.487415 -43.822693
4263000000 -41.171837 -71.451561 -1.4174925 -140.64914 -1.4194379 -140.67938 -34.98838 -46.863674
4264000000 -41.108582 -74.348076 -1.4229223 -143.30002 -1.4203776 -143.27058 -34.857849 -44.159061
4265000000 -40.795681 -78.526886 -1.4180641 -145.88995 -1.4234819 -145.95787 -34.728889 -45.83091
4266000000 -40.267006 -86.61264 -1.4218336 -148.58917 -1.4230584 -148.57626 -34.589714 -45.403389
4267000000 -40.302925 -91.850471 -1.4219651 -151.22878 -1.4184517 -151.25331 -34.40987 -45.751297
4268000000 -39.297325 -93.157333 -1.4201593 -153.87335 -1.4189454 -153.89903 -33.988564 -46.785534
4269000000 -39.041203 -100.30415 -1.4188346 -156.53476 -1.4217808 -156.55162 -34.295803 -47.030018
4270000000 -39.128456 -102.0162 -1.4295808 -159.17358 -1.4200057 -159.19783 -34.124084 -47.506939
4271000000 -39.000458 -105.29984 -1.4266561 -161.82333 -1.4202682 -161.82506 -33.676521 -48.636021
4272000000 -38.710648 -110.18736 -1.4208031 -164.47441 -1.4253477 -164.50729 -33.958328 -48.489334
4273000000 -38.062511 -113.02773 -1.4255745 -167.09737 -1.4217945 -167.16373 -33.588127 -48.8409
4274000000 -38.075806 -116.05544 -1.4239631 -169.76926 -1.4224977 -169.82048 -33.703907 -51.417904
4275000000 -38.269516 -123.01685 -1.4263082 -172.42848 -1.420331 -172.44571 -33.748325 -53.094208
4276000000 -37.828114 -124.16497 -1.4205618 -175.05609 -1.4251813 -175.09612 -33.707092 -53.769684
4277000000 -37.892578 -124.94636 -1.428834 -177.69798 -1.4219719 -177.7419 -33.392181 -53.84417
4278000000 -38.200417 -129.97346 -1.4254767 179.63826 -1.4225415 179.61095 -33.498119 -55.226067
4279000000 -37.649288 -134.28453 -1.4230078 176.97296 -1.4274418 176.95097 -33.628147 -55.813488
4280000000 -37.738197 -137.02971 -1.4244244 174.33902 -1.4224949 174.31317 -33.681103 -58.523869
4281000000 -37.62471 -142.37949 -1.4235499 171.68109 -1.4239265 171.65198 -33.693832 -56.820351
4282000000 -37.787903 -143.36563 -1.4257786 169.03201 -1.4217571 169.00589 -34.268475 -58.904972
4283000000 -38.200329 -149.53777 -1.4284869 166.36206 -1.4226583 166.3506 -33.951698 -59.332043
4284000000 -38.828953 -151.99207 -1.4250382 163.7189 -1.4248194 163.71494 -34.217789 -62.419418
4285000000 -38.675068 -156.14105 -1.4281157 161.07327 -1.4241154 161.0428 -34.236797 -61.806217
4286000000 -38.551815 -156.48654 -1.4320647 158.40752 -1.4229715 158.41161 -34.479462 -61.278477
4287000000 -38.705673 -162.11482 -1.4324833 155.80867 -1.4222836 155.74168 -34.558914 -63.283184
4288000000 -38.692776 -167.29729 -1.4266181 153.13327 -1.422173 153.11543 -34.525238 -64.652046
4289000000 -38.821064 -169.89865 -1.4238926 150.48799 -1.4208623 150.44241 -35.219322 -66.17691
4290000000 -39.619965 -175.74359 -1.4249868 147.83096 -1.4287844 147.80391 -35.309502 -67.595535
4291000000 -39.380589 -174.93118 -1.4291679 145.19319 -1.424419 145.14914 -35.466362 -67.362259
4292000000 -39.668018 179.10176 -1.4260968 142.52028 -1.4250181 142.50519 -35.708584 -67.480553
4293000000 -39.732788 176.86977 -1.4226475 139.85974 -1.4284627 139.85628 -36.031624 -68.228462
4294000000 -39.951313 168.44293 -1.4240123 137.2039 -1.4270149 137.22224 -36.245083 -70.029816
4295000000 -40.550266 162.96352 -1.4279258 134.60011 -1.4259012 134.56569 -36.632858 -70.43972
4296000000 -41.094704 162.26561 -1.4271861 131.92284 -1.4258264 131.90138 -36.924812 -71.057564
4297000000 -41.738426 157.79716 -1.430865 129.29443 -1.4249214 129.24451 -37.108059 -71.640518
4298000000 -40.955093 151.98517 -1.4213743 126.6254 -1.4266105 126.63671 -37.814137 -70.744026
4299000000 -41.829491 147.86717 -1.4270294 123.97182 -1.4273279 123.96178 -38.00906 -72.005325
4300000000 -42.448833 141.11137 -1.4281031 121.33846 -1.4251586 121.28468 -38.191566 -71.344666
4301000000 -42.71994 133.15149 -1.4248197 118.66569 -1.4276633 118.65339 -38.583591 -71.498199
4302000000 -43.087704 135.82512 -1.4310021 116.04222 -1.4290631 116.00253 -39.1306 -69.99678
4303000000 -43.529125 123.51732 -1.4260217 113.39005 -1.4275558 113.34768 -38.887276 -68.903023
4304000000 -43.108963 120.49381 -1.4302579 110.76198 -1.4250634 110.69349 -39.398952 -67.149376
4305000000 -44.183865 113.93005 -1.4299197 108.08716 -1.4219561 108.06828 -39.702419 -67.008293
4306000000 -44.98785 111.53942 -1.4282229 105.41966 -1.427426 105.42934 -40.183796 -64.470619
4307000000 -45.347622 101.04864 -1.431357 102.79575 -1.4256895 102.72837 -40.640533 -64.988373
4308000000 -45.458603 94.309708 -1.4278042 100.12045 -1.4289232 100.10047 -40.513344 -59.353592
4309000000 -46.736263 88.524536 -1.4287812 97.474739 -1.4293283 97.463745 -40.656654 -59.802444
4310000000 -46.549988 82.759644 -1.432942 94.830948 -1.4265637 94.790291 -41.037045 -56.967976
4311000000 -47.24128 73.762016 -1.4295959 92.182396 -1.4245387 92.152542 -40.805504 -53.287926
4312000000 -47.712852 60.78841 -1.4304522 89.542091 -1.4253757 89.488518 -41.046139 -47.765976
4313000000 -48.919041 65.345963 -1.4320089 86.903976 -1.4309114 86.849419 -41.163048 -51.926056
4314000000 -49.448975 52.964043 -1.4295589 84.233162 -1.4274572 84.198883 -40.61198 -44.866337
4315000000 -48.79985 36.207275 -1.4302133 81.558334 -1.4274911 81.585144 -40.584846 -42.454868
4316000000 -49.855995 23.300817 -1.4306055 78.920326 -1.4286401 78.891182 -40.428501 -40.844112
4317000000 -49.471176 12.360919 -1.4313617 76.280357 -1.4296074 76.262917 -40.140663 -41.981331
4318000000 -49.106449 1.9284288 -1.4290135 73.644852 -1.4269154 73.603455 -39.484406 -40.053661
4319000000 -49.307098 -6.728272 -1.4278607 70.975197 -1.4301504 70.939674 -39.611511 -35.881931
4320000000 -46.814606 -13.45459 -1.4327908 68.322884 -1.4282095 68.316017 -39.48167 -36.854267
4321000000 -47.622753 -30.534874 -1.4313455 65.694717 -1.4316968 65.655151 -38.946697 -33.360119
4322000000 -47.263523 -36.573563 -1.430077 63.036198 -1.4330806 62.98888 -38.563381 -32.762478
4323000000 -46.415993 -44.795525 -1.4316928 60.390068 -1.4326125 60.343956 -38.175549 -33.57893
4324000000 -46.154915 -52.260052 -1.4322224 57.733303 -1.431939 57.703503 -38.00132 -32.045731
4325000000 -45.521015 -58.447582 -1.4368694 55.070068 -1.4278532 55.062664 -37.574646 -30.386324
4326000000 -44.828106 -59.923588 -1.4305854 52.441582 -1.4333787 52.406975 -37.585285 -27.948532
4327000000 -44.513733 -72.169167 -1.4317998 49.790936 -1.4312576 49.730541 -37.371246 -32.473454
4328000000 -43.168633 -77.317383 -1.4278233 47.133778 -1.4330806 47.126137 -36.790352 -32.190845
4329000000 -43.747631 -78.432747 -1.4315773 44.472778 -1.4325143 44.419373 -36.943699 -29.01922
4330000000 -43.030487 -83.96772 -1.4322187 41.829082 -1.4333586 41.813564 -36.419601 -30.875475
4331000000 -42.675663 -87.049316 -1.4277766 39.209324 -1.4330317 39.132256 -36.204037 -31.09544
4332000000 -41.941074 -86.244598 -1.4356933 36.56023 -1.4300867 36.538647 -36.090111 -30.46242
4333000000 -41.905487 -96.559044 -1.4332477 33.909271 -1.4342552 33.859386 -35.936249 -31.060617
4334000000 -41.54351 -102.79919 -1.4328948 31.236706 -1.4327163 31.177656 -36.072128 -34.604412
4335000000 -41.541431 -102.73255 -1.4302583 28.553181 -1.4294872 28.560028 -35.858051 -33.102707
4336000000 -40.891209 -107.89171 -1.4333514 25.930119 -1.4351518 25.919268 -35.56411 -32.898354
4337000000 -41.365295 -110.59406 -1.4321892 23.288673 -1.4342142 23.263695 -35.290321 -35.472279
4338000000 -40.875469 -112.28107 -1.436157 20.653183 -1.4332347 20.58885 -35.368088 -35.118786
4339000000 -40.841873 -116.93683 -1.4358752 18.012987 -1.4284977 17.933191 -35.320904 -36.122395
4340000000 -40.927757 -123.42758 -1.4376864 15.353122 -1.4331295 15.285414 -34.928841 -40.25621
4341000000 -40.534294 -124.17651 -1.4376543 12.678782 -1.4305559 12.679894 -34.785923 -38.092674
4342000000 -40.247856 -128.31863 -1.4380411 10.018582 -1.4294444 10.019413 -34.90345 -39.525921
4343000000 -40.112568 -133.92131 -1.4355301 7.3741498 -1.4365922 7.3654394 -35.320675 -40.630524
4344000000 -40.148369 -140.40402 -1.4355171 4.7208781 -1.4330604 4.6930838 -35.358009 -41.667614
4345000000 -39.795429 -139.56413 -1.4344774 2.0768933 -1.4334008 2.0508749 -34.994324 -43.361679
4346000000 -40.167068 -148.18219 -1.4351486 -0.5877794 -1.434618 -0.59219635 -35.289452 -43.589626
4347000000 -40.255913 -147.9635 -1.4318479 -3.1854901 -1.4345002 -3.2534151 -35.20034 -44.391338
4348000000 -40.107616 -150.15227 -1.4358611 -5.8638873 -1.4352181 -5.8744149 -35.290092 -45.619896
4349000000 -40.07222 -156.82297 -1.4373105 -8.5125113 -1.433808 -8.5447655 -35.271664 -48.454945
4350000000 -39.938313 -162.435 -1.4364964 -11.191257 -1.4340587 -11.202055 -35.334011 -48.050106
4351000000 -39.860867 -165.07434 -1.4370924 -13.807607 -1.4356648 -13.849887 -35.211292 -49.065178
4352000000 -40.06768 -172.53954 -1.4378814 -16.469837 -1.4316158 -16.462034 -35.309364 -50.401802
4353000000 -40.23275 -175.72577 -1.4310309 -19.119387 -1.4381323 -19.160772 -35.215355 -50.471806
4354000000 -39.978424 -179.27753 -1.4325312 -21.76926 -1.4359591 -21.795099 -35.371193 -52.215858
4355000000 -40.066212 177.83369 -1.4376727 -24.421272 -1.4353327 -24.44426 -35.448238 -56.122005
4356000000 -40.368454 176.4342 -1.4399527 -27.05344 -1.4401114 -27.093405 -35.71973 -55.680359
4357000000 -40.162048 168.78279 -1.4412075 -29.723156 -1.4349847 -29.744654 -35.700737 -54.780743
4358000000 -40.772659 164.62982 -1.4407047 -32.374004 -1.4367123 -32.394947 -36.067055 -58.182613
4359000000 -40.855476 160.00963 -1.4357667 -35.008648 -1.4412847 -35.062325 -36.131989 -58.043495
4360000000 -40.596321 155.46187 -1.4414203 -37.659737 -1.435325 -37.719521 -36.330761 -59.214382
4361000000 -40.898319 155.21925 -1.4390992 -40.291824 -1.4380187 -40.334862 -36.565228 -60.376244
4362000000 -40.916859 151.76317 -1.4415437 -42.98616 -1.4362899 -42.995968 -36.602386 -59.851669
4363000000 -41.292461 139.90825 -1.441776 -45.611973 -1.4352429 -45.657276 -36.958969 -61.176933
4364000000 -41.826851 137.48119 -1.4439464 -48.244495 -1.4345614 -48.302551 -36.974545 -61.131458
4365000000 -41.993176 137.15982 -1.4389503 -50.917809 -1.4353517 -50.930798 -37.32135 -61.875061
4366000000 -42.311226 129.93495 -1.4386944 -53.573578 -1.4381402 -53.560596 -37.272533 -61.103016
4367000000 -41.873043 127.28321 -1.4407656 -56.2356 -1.4352612 -56.236912 -37.738544 -58.972115
4368000000 -43.581657 125.23965 -1.4394987 -58.858986 -1.4355816 -58.899742 -37.966209 -61.410656
4369000000 -43.493446 113.9107 -1.4399848 -61.513264 -1.4383327 -61.53355 -38.418434 -59.109203
4370000000 -43.917969 109.42813 -1.4404793 -64.146568 -1.4361328 -64.194984 -38.516262 -59.305542
4371000000 -44.265747 100.06633 -1.4418941 -66.828659 -1.4402932 -66.837906 -38.410851 -58.822411
4372000000 -45.189453 98.426041 -1.4392276 -69.468277 -1.4353654 -69.46505 -38.485607 -53.816143
4373000000 -45.41544 91.320534 -1.4408395 -72.100723 -1.4365252 -72.123367 -39.057678 -53.188114
4374000000 -46.319534 82.528221 -1.4390945 -74.752785 -1.4371033 -74.787033 -38.851841 -48.419525
4375000000 -46.554367 77.274147 -1.4409955 -77.400444 -1.443249 -77.425308 -39.141418 -48.85722
4376000000 -46.604568 70.721405 -1.4408573 -80.063538 -1.4384027 -80.087128 -39.272507 -46.339634
4377000000 -47.268524 48.142296 -1.4461719 -82.743141 -1.4383093 -82.732857 -39.162636 -45.115959
4378000000 -49.163616 52.295467 -1.4407227 -85.378723 -1.4406924 -85.357552 -39.375233 -40.618919
4379000000 -46.485085 35.238743 -1.4410651 -88.007813 -1.4399332 -88.017197 -39.068672 -41.083843
4380000000 -47.147076 21.478386 -1.4404782 -90.635712 -1.4408829 -90.696747 -39.22295 -36.840481
4381000000 -48.103275 19.186882 -1.4444178 -93.301003 -1.4398785 -93.331306 -38.907711 -33.10881
4382000000 -47.229462 5.2044234 -1.4435544 -95.94342 -1.4404713 -95.982468 -39.364811 -30.417192
4383000000 -45.943726 -11.840412 -1.4435555 -98.616234 -1.4445099 -98.649467 -39.106949 -30.522804
4384000000 -45.874397 -16.48761 -1.4410069 -101.24271 -1.4360831 -101.29694 -38.678028 -25.423269
4385000000 -45.806274 -30.980259 -1.4435366 -103.89102 -1.4414712 -103.94518 -38.501621 -22.383245
4386000000 -45.198833 -38.192169 -1.4443972 -106.56449 -1.4412862 -106.61176 -38.117821 -23.59223
4387000000 -43.974827 -42.049618 -1.4447398 -109.22879 -1.4467891 -109.22123 -38.047005 -19.589638
4388000000 -43.853703 -52.766548 -1.4403917 -111.85847 -1.443349 -111.88348 -37.737335 -18.151291
4389000000 -43.015884 -57.297493 -1.4426717 -114.51978 -1.4395831 -114.55142 -37.190521 -19.213493
4390000000 -42.852669 -57.11478 -1.4469267 -117.20323 -1.4364917 -117.20696 -36.901848 -16.789328
4391000000 -42.727421 -66.791542 -1.4415827 -119.83292 -1.4417926 -119.85109 -36.62389 -17.12166
4392000000 -42.202324 -75.232513 -1.4450243 -122.46573 -1.4448806 -122.51524 -36.865574 -15.853774
4393000000 -42.090672 -74.504135 -1.4485018 -125.09203 -1.4402452 -125.14702 -36.236942 -14.011945
4394000000 -40.709282 -79.022148 -1.4456172 -127.74647 -1.4454403 -127.77818 -35.770752 -12.761508
4395000000 -40.918579 -87.266144 -1.4466819 -130.41634 -1.4421967 -130.43546 -35.823753 -15.005456
4396000000 -40.473339 -89.868034 -1.4447188 -133.08258 -1.4415834 -133.0806 -35.450607 -14.962586
4397000000 -40.157585 -96.425781 -1.4445969 -135.7292 -1.4415141 -135.7215 -35.222591 -13.619323
4398000000 -39.513557 -101.68697 -1.4422841 -138.37715 -1.4424937 -138.42365 -35.180153 -17.139448
4399000000 -39.906197 -103.23142 -1.4448777 -141.00632 -1.4452316 -141.04234 -34.73381 -15.433517
4400000000 -39.451595 -110.8176 -1.4486905 -143.64888 -1.4433825 -143.68617 -34.560738 -15.359642
4401000000 -39.077847 -115.11829 -1.4480546 -146.3362 -1.4443438 -146.32843 -34.389824 -16.353283
4402000000 -39.404816 -121.18214 -1.448133 -148.96085 -1.444617 -148.9832 -34.320194 -16.590506
4403000000 -39.01136 -126.07585 -1.4471228 -151.621 -1.445367 -151.65878 -34.150249 -17.081215
4404000000 -38.73629 -125.99828 -1.445328 -154.29254 -1.4460704 -154.25667 -34.112297 -18.015068
4405000000 -38.341862 -132.50687 -1.4455067 -156.89386 -1.4436851 -156.93813 -33.998089 -18.781158
4406000000 -38.215103 -137.34673 -1.4485217 -159.54729 -1.4437846 -159.578 -33.581856 -18.778606
4407000000 -38.28117 -141.67548 -1.449985 -162.2045 -1.4454013 -162.24333 -33.753933 -20.170305
4408000000 -37.869854 -145.12408 -1.45013 -164.86182 -1.4504188 -164.88658 -33.69558 -21.543659
4409000000 -37.771042 -149.45457 -1.4496974 -167.51109 -1.4440106 -167.52388 -33.496441 -23.811365
4410000000 -37.639225 -153.98399 -1.4483364 -170.14482 -1.4486945 -170.1812 -33.407707 -23.48447
4411000000 -37.318794 -158.05376 -1.4505179 -172.78879 -1.4453853 -172.85458 -33.479698 -25.443855
4412000000 -37.067406 -163.49251 -1.4466031 -175.50919 -1.4456747 -175.47728 -33.335178 -26.867113
4413000000 -37.160862 -166.03287 -1.4493843 -178.08748 -1.4469668 -178.13603 -33.16745 -25.624563
4414000000 -36.928791 -172.03632 -1.4501702 179.24763 -1.4449322 179.2177 -33.293705 -29.036316
4415000000 -36.54718 -173.52005 -1.4470203 176.59377 -1.4512666 176.55032 -33.325741 -28.599049
4416000000 -36.554192 179.08458 -1.4520419 173.93642 -1.4484296 173.94492 -33.0186 -30.659626
4417000000 -36.206451 176.74881 -1.4508382 171.28679 -1.4491065 171.26064 -32.996201 -31.131088
4418000000 -36.639168 172.07796 -1.4551169 168.61348 -1.4497072 168.64371 -33.071793 -32.682751
4419000000 -36.584686 169.58583 -1.4506278 165.9577 -1.4477421 165.97801 -33.225334 -33.766983
4420000000 -36.378273 166.58138 -1.4463466 163.35376 -1.44935 163.34306 -33.152042 -35.302055
4421000000 -36.443813 161.85591 -1.4514854 160.68883 -1.448861 160.66827 -33.262909 -36.432583
4422000000 -36.398918 158.48534 -1.453832 158.05362 -1.4513299 157.99454 -33.078037 -36.524944
4423000000 -35.763363 152.41965 -1.4500552 155.36331 -1.4451308 155.36316 -33.135498 -37.714222
4424000000 -36.283405 150.35339 -1.4509051 152.76723 -1.4465287 152.73778 -33.158237 -40.25658
4425000000 -36.109074 147.35983 -1.4506299 150.08682 -1.4503219 150.09427 -33.102528 -40.520489
4426000000 -36.397213 139.46967 -1.4514073 147.43376 -1.4518279 147.44017 -33.402359 -42.639484
4427000000 -36.374245 138.7339 -1.4525551 144.77763 -1.4471605 144.76572 -33.357738 -41.467606
4428000000 -36.293438 134.02147 -1.4477453 142.17256 -1.4517949 142.1028 -33.376999 -41.472843
4429000000 -36.365788 130.42734 -1.4481663 139.5022 -1.4504889 139.45862 -33.534245 -42.08659
4430000000 -36.233948 125.48167 -1.4502844 136.86397 -1.4431133 136.82327 -33.394009 -43.909073
4431000000 -36.363564 120.87418 -1.4505392 134.17024 -1.4471612 134.17987 -33.378117 -42.771259
4432000000 -36.400665 114.72266 -1.4543183 131.53589 -1.4476571 131.53062 -33.465027 -44.369507
4433000000 -36.500317 114.33529 -1.4496655 128.89247 -1.4499649 128.87752 -33.363804 -43.896442
4434000000 -36.571369 107.35667 -1.4498057 126.28816 -1.447962 126.21582 -33.804623 -46.791649
4435000000 -36.705074 102.91006 -1.4568307 123.58604 -1.4478558 123.56914 -33.523804 -44.777615
4436000000 -36.999798 99.304367 -1.4524781 120.94479 -1.4504188 120.91743 -33.623268 -45.773109
4437000000 -37.275063 93.6707 -1.45489 118.31142 -1.4461505 118.27508 -33.821362 -46.160187
4438000000 -37.281132 88.616325 -1.4468559 115.6442 -1.4485959 115.62601 -33.794876 -45.275406
4439000000 -37.346596 85.957382 -1.4529366 112.99882 -1.451032 112.97648 -33.820538 -46.293793
4440000000 -37.247635 78.812012 -1.4524599 110.35529 -1.448732 110.32556 -33.998028 -45.5966
4441000000 -37.369591 72.852997 -1.4507927 107.6883 -1.4471861 107.67109 -34.050949 -46.314903
4442000000 -37.633965 70.103783 -1.4532094 105.06917 -1.4517273 105.00643 -34.385933 -45.627968
4443000000 -37.493553 61.510265 -1.4486963 102.38132 -1.4518195 102.37821 -34.272274 -42.452278
4444000000 -37.511051 59.776306 -1.4569046 99.744751 -1.4494888 99.725601 -34.073662 -45.081009
4445000000 -37.149368 53.416042 -1.450567 97.118164 -1.4501702 97.074585 -34.172794 -45.507416
4446000000 -37.947536 47.381855 -1.4513024 94.444 -1.448185 94.405434 -34.129845 -43.492455
4447000000 -37.41526 39.984024 -1.4585091 91.786491 -1.4540842 91.800995 -34.647339 -42.882523
4448000000 -37.920357 36.223724 -1.4565527 89.123764 -1.4539304 89.13073 -34.534725 -43.580803
4449000000 -37.988297 30.794291 -1.4548481 86.480423 -1.4524137 86.497704 -34.427437 -42.029663
4450000000 -38.046894 24.944363 -1.453658 83.847382 -1.4542296 83.829781 -34.246609 -40.923325
4451000000 -37.640583 22.035662 -1.4527627 81.186668 -1.4526296 81.153091 -34.508377 -43.247276
4452000000 -37.328815 15.056862 -1.4547441 78.512589 -1.4541844 78.517075 -34.512215 -41.65332
4453000000 -37.410362 11.305636 -1.4520575 75.932289 -1.4507475 75.851288 -34.511318 -41.439014
4454000000 -37.387779 6.8491225 -1.4584099 73.248184 -1.4515917 73.205132 -34.132652 -41.338715
4455000000 -37.445984 4.1075001 -1.4562262 70.632744 -1.4509846 70.593475 -34.170555 -39.395237
4456000000 -37.401386 -1.1691717 -1.4532604 67.94249 -1.4585921 67.917366 -34.064335 -41.340454
4457000000 -37.387249 -4.661664 -1.450972 65.293976 -1.4548321 65.244614 -34.06665 -40.780483
4458000000 -37.199112 -11.905449 -1.4577174 62.635117 -1.4512208 62.617344 -34.225838 -40.352989
4459000000 -37.368587 -16.348736 -1.4566928 60.023739 -1.4558023 59.97562 -33.771389 -39.942947
4460000000 -37.761585 -21.481951 -1.4588742 57.332539 -1.4553611 57.338768 -33.858063 -40.805161
4461000000 -37.402863 -25.063835 -1.4559468 54.699039 -1.4498308 54.662926 -33.999142 -40.848114
4462000000 -37.388077 -28.56806 -1.4554502 52.052242 -1.4513801 52.034904 -33.578312 -40.698101
4463000000 -37.638149 -33.62772 -1.4558871 49.391006 -1.4552436 49.387341 -33.607704 -40.737808
4464000000 -37.45776 -41.70853 -1.4562103 46.743351 -1.4555634 46.722881 -33.31007 -41.001823
4465000000 -37.430187 -43.907337 -1.4553967 44.103748 -1.4553453 44.065002 -33.386589 -41.09943
4466000000 -37.201321 -51.291363 -1.4587591 41.416077 -1.4530737 41.421097 -33.220699 -43.742664
4467000000 -37.196457 -54.344955 -1.4532626 38.815083 -1.455453 38.772106 -33.08614 -43.579857
4468000000 -37.456783 -59.998383 -1.4582258 36.14452 -1.4575816 36.114643 -32.896515 -44.784424
4469000000 -37.041267 -64.862175 -1.4542431 33.508739 -1.4516846 33.46487 -32.78635 -44.009628
4470000000 -37.383408 -72.955788 -1.4584599 30.829193 -1.4542477 30.792784 -32.90556 -43.885666
4471000000 -37.35033 -75.261147 -1.4582621 28.174143 -1.4591415 28.195995 -32.797665 -43.702374
4472000000 -37.021297 -79.73558 -1.45886 25.585474 -1.4517182 25.494114 -32.53944 -46.904991
4473000000 -37.405884 -86.031609 -1.4619403 22.923597 -1.4565926 22.859888 -32.735386 -47.479168
4474000000 -37.444946 -91.483429 -1.4583147 20.24452 -1.4535506 20.225147 -32.397903 -48.760555
4475000000 -37.313374 -97.391167 -1.4620174 17.579466 -1.4532359 17.598782 -32.280869 -49.899269
4476000000 -37.147873 -104.05626 -1.4585004 14.965347 -1.4576614 14.917617 -32.185997 -50.147881
4477000000 -37.144318 -104.64648 -1.4582868 12.310779 -1.4552562 12.298831 -32.313728 -52.359802
4478000000 -37.299721 -110.56294 -1.4618732 9.6332026 -1.4568341 9.6439171 -32.302311 -51.508579
4479000000 -37.179001 -116.43835 -1.4591107 6.9981241 -1.4596606 7.0118775 -32.379562 -51.304371
4480000000 -36.95731 -121.98138 -1.4610578 4.3363271 -1.4576538 4.3322849 -32.142681 -54.212345
4481000000 -37.261826 -125.1156 -1.4578627 1.7113222 -1.4609903 1.6607375 -32.326992 -53.704712
4482000000 -37.080406 -129.65575 -1.4611976 -0.96304023 -1.4590571 -0.98127955 -32.077114 -56.964729
4483000000 -37.436344 -136.33295 -1.4606693 -3.5874541 -1.4549171 -3.6487482 -32.152328 -55.831783
4484000000 -37.240017 -139.76355 -1.4622462 -6.2712412 -1.4600272 -6.2677407 -32.085609 -55.810413
4485000000 -37.548912 -142.78462 -1.4637939 -8.9107876 -1.4589325 -8.9255953 -32.172916 -57.686035
4486000000 -37.109055 -148.51163 -1.4600682 -11.568944 -1.4593792 -11.563357 -32.088192 -58.662411
4487000000 -37.386993 -152.75618 -1.46219 -14.206411 -1.4585729 -14.194172 -32.360313 -59.731766
4488000000 -37.217754 -156.60602 -1.4628646 -16.869616 -1.4600791 -16.873672 -32.217251 -60.209087
4489000000 -37.28249 -159.63933 -1.464443 -19.51948 -1.4619073 -19.505463 -32.397625 -59.279671
4490000000 -37.616379 -165.75449 -1.4622437 -22.152315 -1.4572573 -22.147949 -32.278675 -61.686615
4491000000 -37.477695 -168.99097 -1.4649986 -24.786772 -1.4555157 -24.82489 -32.474205 -61.920502
4492000000 -37.504314 -172.86395 -1.4621871 -27.44183 -1.4599657 -27.479015 -32.597408 -62.824238
4493000000 -37.803001 -178.05023 -1.4619881 -30.104292 -1.4586942 -30.100473 -32.677322 -63.624565
4494000000 -37.950726 177.97218 -1.4647107 -32.751663 -1.4568952 -32.77845 -33.095337 -64.444344
4495000000 -38.341984 173.38759 -1.4625517 -35.395603 -1.4580915 -35.41914 -33.044769 -64.842949
4496000000 -38.199162 167.22644 -1.4611346 -38.037773 -1.4617231 -38.088753 -33.004768 -63.892365
4497000000 -38.572552 165.94991 -1.4593027 -40.677742 -1.4596555 -40.723141 -33.264393 -67.134789
4498000000 -38.97242 157.22649 -1.4642066 -43.334488 -1.4579051 -43.372688 -33.48695 -66.009483
4499000000 -39.243614 154.43771 -1.4626874 -46.000034 -1.4581147 -46.024216 -33.667027 -66.728317
4500000000 -39.394402 147.00098 -1.4636003 -48.619995 -1.4592527 -48.670055 -33.970207 -68.590614
4501000000 -39.6339 140.42438 -1.4646316 -51.279007 -1.4613191 -51.325527 -34.033062 -67.42997
4502000000 -39.595829 137.30786 -1.4616739 -53.937508 -1.46156 -53.960377 -34.497837 -68.271179
4503000000 -40.132236 131.08661 -1.4635988 -56.585995 -1.4620675 -56.60511 -34.565617 -67.075462
4504000000 -40.557629 126.62851 -1.4634966 -59.264488 -1.4637678 -59.248844 -34.782127 -65.91745
4505000000 -40.063663 122.40286 -1.4623755 -61.892464 -1.4610302 -61.886902 -35.108501 -66.621597
4506000000 -40.668503 116.31344 -1.4634646 -64.522758 -1.4633461 -64.578384 -35.490543 -66.966812
4507000000 -40.596901 111.36356 -1.4632598 -67.188591 -1.4621284 -67.211403 -35.527821 -68.181076
4508000000 -40.345768 105.92241 -1.4675976 -69.831154 -1.4628087 -69.851959 -35.642982 -67.516785
4509000000 -41.067036 103.42218 -1.4637884 -72.50547 -1.4623936 -72.495911 -36.068047 -65.925148
4510000000 -41.077007 92.550285 -1.463886 -75.155945 -1.4606689 -75.16114 -36.335529 -66.726524
4511000000 -41.101559 90.032135 -1.4605174 -77.792358 -1.4615684 -77.812538 -36.748035 -65.684883
4512000000 -41.527359 84.685791 -1.4615575 -80.46463 -1.4604276 -80.474777 -36.676125 -64.178741
4513000000 -41.909275 75.142181 -1.4628371 -83.081825 -1.46522 -83.100594 -37.423996 -66.485817
4514000000 -42.178501 69.698891 -1.4642254 -85.737129 -1.4614129 -85.759384 -37.34515 -61.383095
4515000000 -41.463951 61.804073 -1.4696518 -88.395958 -1.4636637 -88.397476 -37.847164 -62.181389
4516000000 -42.185184 60.967457 -1.4623419 -91.049225 -1.4620421 -91.07103 -38.265926 -62.691219
4517000000 -42.167454 51.874924 -1.4671581 -93.723648 -1.463176 -93.703041 -37.857235 -60.230064
4518000000 -42.716331 49.415314 -1.4668257 -96.325562 -1.4593698 -96.366371 -37.84787 -57.474682
4519000000 -41.573078 44.047077 -1.4699293 -98.975403 -1.4634392 -98.988342 -38.59 -59.114754
4520000000 -42.617813 36.006943 -1.4720378 -101.63373 -1.4603918 -101.65643 -38.225361 -55.4352
4521000000 -42.210411 28.238457 -1.4653798 -104.28239 -1.4645191 -104.33876 -38.421932 -50.354996
4522000000 -42.989975 22.217466 -1.4643854 -106.94969 -1.4683024 -106.94489 -38.300842 -54.792347
4523000000 -43.234573 12.802375 -1.4691236 -109.60555 -1.4585768 -109.61102 -37.920326 -50.777466
4524000000 -42.720425 8.4160614 -1.4671845 -112.24595 -1.4633142 -112.22996 -38.166859 -47.7729
4525000000 -43.601353 1.7945836 -1.4655163 -114.87733 -1.4681278 -114.8998 -38.023251 -45.478912
4526000000 -43.210518 -8.371973 -1.4662633 -117.55503 -1.4668492 -117.56339 -37.685143 -46.90271
4527000000 -43.221222 -13.341774 -1.4658279 -120.16895 -1.4657568 -120.25025 -37.85614 -45.750225
4528000000 -43.594658 -15.997486 -1.4696018 -122.85831 -1.4632634 -122.85463 -37.584106 -41.918873
4529000000 -43.606361 -26.355524 -1.4657862 -125.49454 -1.4653469 -125.48724 -37.345913 -41.313576
4530000000 -43.249077 -31.210068 -1.470506 -128.12383 -1.4636362 -128.14195 -36.953941 -41.523521
4531000000 -42.751488 -41.190281 -1.4637837 -130.77925 -1.4664911 -130.80118 -36.711201 -41.222019
4532000000 -42.431881 -49.638523 -1.470957 -133.43614 -1.4637877 -133.45738 -36.50399 -38.145672
4533000000 -42.684006 -59.592075 -1.4682738 -136.10057 -1.4680661 -136.11166 -36.363766 -40.433323
4534000000 -42.834053 -66.556236 -1.4704289 -138.73375 -1.4641711 -138.74628 -35.914757 -40.578358
4535000000 -42.657635 -69.745766 -1.4735533 -141.39815 -1.464884 -141.40581 -35.9021 -40.215115
4536000000 -42.05735 -81.509178 -1.4690118 -144.02568 -1.4696461 -144.07201 -35.483128 -41.29073
4537000000 -41.047813 -81.58429 -1.4645591 -146.66942 -1.4667077 -146.68835 -34.885662 -39.775242
4538000000 -41.069183 -87.332817 -1.4663579 -149.30312 -1.4664389 -149.34386 -34.925003 -38.693104
4539000000 -40.922462 -95.045174 -1.4687046 -151.98325 -1.4697292 -152.02438 -35.028069 -40.278168
4540000000 -40.711021 -99.655678 -1.4714049 -154.65845 -1.4685895 -154.61621 -34.631428 -39.000042
4541000000 -40.307327 -106.50964 -1.4680182 -157.285 -1.4694122 -157.29872 -34.276863 -40.253712
4542000000 -40.052132 -109.42475 -1.4731041 -159.9191 -1.4687777 -159.95406 -34.137413 -41.223633
4543000000 -40.134361 -116.59293 -1.4669923 -162.59897 -1.4672296 -162.56741 -33.875629 -42.604359
4544000000 -39.691265 -118.73196 -1.4707617 -165.22522 -1.4692209 -165.25978 -33.93446 -40.511948
4545000000 -39.594933 -122.74149 -1.4739549 -167.88667 -1.4662408 -167.88789 -33.602047 -41.992764
4546000000 -39.085552 -129.54869 -1.4695317 -170.50764 -1.4704639 -170.56958 -33.564091 -45.253681
4547000000 -39.023327 -133.96394 -1.4697771 -173.17969 -1.4712749 -173.21118 -33.487072 -44.480885
4548000000 -38.927322 -138.97495 -1.4774245 -175.832 -1.4670125 -175.83342 -33.296799 -44.835491
4549000000 -39.003727 -143.88196 -1.4744762 -178.47795 -1.4675181 -178.48631 -33.094013 -45.745037
4550000000 -38.221344 -145.68483 -1.4718024 178.87045 -1.4676092 178.87503 -33.23806 -47.974102
4551000000 -38.817337 -149.93137 -1.4751229 176.22867 -1.4706167 176.19499 -33.000565 -47.246372
4552000000 -38.301846 -156.77727 -1.4760388 173.58121 -1.4700738 173.5416 -33.148026 -47.393433
4553000000 -38.534019 -159.82501 -1.4742483 170.91612 -1.4716312 170.87662 -33.124229 -49.658131
4554000000 -38.215267 -161.79807 -1.4746671 168.27409 -1.4746751 168.25858 -32.947384 -50.312164
4555000000 -38.186234 -164.31038 -1.4684262 165.61554 -1.4734908 165.61885 -33.092285 -51.435429
4556000000 -38.113689 -169.2774 -1.4726372 162.96376 -1.4732332 162.95067 -33.036518 -50.999287
4557000000 -38.007206 -172.79091 -1.472981 160.32178 -1.4728636 160.31302 -32.843903 -52.813034
4558000000 -38.104378 178.15552 -1.4740608 157.66148 -1.4746114 157.65907 -33.135674 -52.632618
4559000000 -38.12492 178.05338 -1.4759257 155.01942 -1.4701029 154.99168 -33.046875 -53.674679
4560000000 -38.525776 172.61967 -1.4681765 152.4081 -1.4738696 152.35745 -33.053169 -57.841965
4561000000 -38.149849 168.72551 -1.4753083 149.71764 -1.4695799 149.70042 -33.117661 -57.654537
4562000000 -38.172253 163.91722 -1.4749528 147.08948 -1.4743494 147.02586 -33.123722 -57.879787
4563000000 -38.148647 159.31421 -1.4729671 144.42067 -1.4700012 144.38399 -33.241188 -59.183598
4564000000 -38.15313 155.03551 -1.4757538 141.76875 -1.4710385 141.74203 -33.370499 -61.125076
4565000000 -38.052292 150.08011 -1.4708939 139.13756 -1.469527 139.10588 -33.503418 -62.05479
4566000000 -38.328926 143.61635 -1.4759032 136.46281 -1.4745209 136.44461 -33.630951 -62.333801
4567000000 -37.884521 139.45511 -1.4724385 133.80334 -1.4729668 133.80295 -33.85445 -63.703564
4568000000 -38.013134 138.42969 -1.4722648 131.16928 -1.4709817 131.1646 -33.578022 -65.469902
4569000000 -37.891861 130.87003 -1.4743421 128.51927 -1.4753526 128.49231 -33.723728 -64.101555
4570000000 -37.810829 126.55019 -1.4766254 125.88901 -1.4733051 125.86385 -33.984127 -66.364212
4571000000 -37.493595 122.52171 -1.4708325 123.23586 -1.4767134 123.20578 -33.930473 -67.522995
4572000000 -37.945461 118.97269 -1.4781364 120.58936 -1.4760675 120.5393 -34.056431 -66.728188
4573000000 -37.965103 112.45914 -1.4783183 117.91862 -1.4748539 117.88805 -34.064701 -69.602844
4574000000 -37.707561 109.15796 -1.4730278 115.2619 -1.4688096 115.28535 -34.228031 -69.871574
4575000000 -38.175835 103.53438 -1.4782652 112.66747 -1.4738092 112.60148 -34.298023 -70.615463
4576000000 -38.347221 99.384399 -1.476033 110.00201 -1.4740244 109.96667 -34.649689 -70.246498
4577000000 -37.77055 98.493416 -1.473573 107.33021 -1.4751127 107.32005 -34.642193 -70.603188
4578000000 -37.578716 90.881897 -1.4745013 104.66247 -1.4748278 104.65092 -34.73357 -69.449982
4579000000 -38.02383 88.271858 -1.4741101 102.0421 -1.4744562 102.00724 -34.931335 -71.452988
4580000000 -38.067352 80.567451 -1.4774013 99.356361 -1.4759973 99.373596 -35.089478 -73.98336
4581000000 -38.640194 76.870186 -1.4755642 96.725739 -1.4754679 96.680656 -35.045132 -69.770622
4582000000 -38.258472 73.965355 -1.4778057 94.087883 -1.4755497 94.052612 -35.006474 -70.407654
4583000000 -38.184002 66.016121 -1.4797084 91.384018 -1.4711155 91.399117 -35.363194 -70.486168
4584000000 -38.331165 64.372528 -1.4802562 88.775238 -1.4710239 88.763107 -34.759171 -71.51284
4585000000 -38.394753 56.391582 -1.4776391 86.133232 -1.4742584 86.076393 -35.179722 -72.277061
4586000000 -38.245842 53.45631 -1.4784616 83.506119 -1.4776064 83.456039 -35.16259 -71.0812
4587000000 -38.352573 47.517975 -1.4753585 80.816772 -1.4746031 80.831757 -35.360798 -70.420204
4588000000 -37.963043 42.856853 -1.477255 78.209328 -1.4738467 78.156548 -35.38348 -69.501137
4589000000 -38.818272 36.974197 -1.4802427 75.524193 -1.4781976 75.51239 -35.246429 -69.242195
4590000000 -38.602051 30.587124 -1.4755236 72.885193 -1.4770346 72.854424 -35.297138 -67.493645
4591000000 -38.574898 27.530499 -1.4796636 70.217285 -1.4746242 70.18335 -35.101814 -67.977348
4592000000 -38.86219 22.751438 -1.4793503 67.587929 -1.4745245 67.557266 -35.083393 -65.883675
4593000000 -38.571423 18.60915 -1.4766552 64.915901 -1.4728912 64.91494 -35.004921 -64.935913
4594000000 -38.187977 13.384672 -1.4764446 62.267612 -1.4746066 62.254478 -34.780136 -65.677048
4595000000 -38.158676 5.3779726 -1.4814975 59.627422 -1.4713449 59.606522 -34.784687 -63.380367
4596000000 -39.013252 -0.34633788 -1.481456 56.944157 -1.4807956 56.954823 -34.567585 -64.494553
4597000000 -38.160679 -4.610311 -1.4771761 54.323841 -1.4749727 54.322613 -34.708897 -63.8797
4598000000 -38.393284 -9.5667906 -1.4806781 51.692924 -1.4779105 51.660583 -34.442799 -64.09935
4599000000 -38.840309 -15.327886 -1.4779974 49.03735 -1.4768447 49.016926 -34.634712 -61.880455
4600000000 -38.429798 -19.675659 -1.479804 46.346741 -1.4771954 46.324669 -34.545582 -61.880512
4601000000 -38.356884 -25.110653 -1.4823296 43.721668 -1.4726682 43.707035 -34.248436 -61.224178
4602000000 -38.027397 -29.814159 -1.4800786 41.072762 -1.4813497 41.062122 -34.221298 -59.277866
4603000000 -38.739037 -36.12167 -1.479522 38.406445 -1.4746671 38.408955 -34.281849 -62.380474
4604000000 -38.583477 -39.049053 -1.4820383 35.770725 -1.4771153 35.756092 -34.010471 -61.592167
4605000000 -38.329418 -39.364326 -1.483624 33.128361 -1.4769528 33.082363 -33.970867 -59.62603
4606000000 -38.594276 -49.661133 -1.4831009 30.470451 -1.4771484 30.449282 -33.991325 -61.11298
4607000000 -38.380116 -54.198318 -1.4785414 27.849001 -1.4782146 27.818279 -33.985542 -63.028828
4608000000 -38.268059 -57.251293 -1.4805393 25.176521 -1.4796124 25.146584 -34.019432 -62.70665
4609000000 -38.153713 -59.432419 -1.4810702 22.524807 -1.482688 22.507891 -33.936729 -60.889786
4610000000 -38.45742 -64.058167 -1.481128 19.895761 -1.4807832 19.85173 -34.283112 -61.664444
4611000000 -38.129086 -70.275276 -1.4869915 17.190434 -1.4757872 17.231083 -33.736088 -62.826
4612000000 -38.387112 -70.421806 -1.483789 14.579496 -1.4801335 14.570863 -34.008465 -63.463448
4613000000 -38.765965 -73.735397 -1.4816028 11.934025 -1.4790151 11.922633 -34.135845 -62.495178
4614000000 -38.48587 -78.377007 -1.4823987 9.2848778 -1.4828627 9.2653141 -34.017059 -63.116619
4615000000 -38.797306 -82.635963 -1.4813988 6.6367378 -1.4805408 6.6002483 -34.185566 -66.024963
4616000000 -39.085304 -86.987297 -1.4866146 3.9736452 -1.4788346 3.9671993 -34.149441 -66.304382
4617000000 -39.383148 -88.241478 -1.4823911 1.3168757 -1.4823995 1.3093265 -34.255051 -66.334816
4618000000 -39.436623 -92.11602 -1.4800894 -1.2852561 -1.47943 -1.3407571 -34.354454 -68.095573
4619000000 -39.710751 -95.642159 -1.4843432 -3.9617987 -1.4794759 -3.9886298 -34.430302 -68.070724
4620000000 -40.014442 -99.273468 -1.4814105 -6.6129446 -1.4789034 -6.6607809 -34.565056 -71.252426
4621000000 -40.198132 -103.49156 -1.4822181 -9.2502947 -1.4804243 -9.2719994 -34.382412 -70.99511
4622000000 -40.296032 -110.36491 -1.4863712 -11.91688 -1.480464 -11.938542 -34.722698 -72.689247
4623000000 -40.948586 -108.00101 -1.4813701 -14.577727 -1.480322 -14.586031 -34.684856 -72.333099
4624000000 -41.074318 -116.92739 -1.4804108 -17.199011 -1.4798648 -17.245104 -35.037598 -75.675339
4625000000 -41.462776 -120.58018 -1.4859629 -19.874544 -1.483207 -19.884287 -35.379124 -77.315536
4626000000 -42.164276 -119.78652 -1.4832761 -22.496302 -1.4801029 -22.548971 -35.325428 -79.742485
4627000000 -42.797661 -127.45676 -1.4830587 -25.159939 -1.4813573 -25.213459 -35.685986 -80.165855
4628000000 -43.199883 -129.66823 -1.4847782 -27.817793 -1.4826475 -27.870178 -36.187504 -80.693504
4629000000 -43.331093 -132.87286 -1.4833406 -30.474781 -1.4850482 -30.501026 -36.085636 -82.205429
4630000000 -43.624687 -138.46249 -1.4837898 -33.135349 -1.48174 -33.139542 -36.395081 -83.63887
4631000000 -44.640034 -143.07579 -1.4817324 -35.758194 -1.4824705 -35.837879 -36.878998 -86.49482
4632000000 -45.202496 -143.22958 -1.4842528 -38.432652 -1.4819225 -38.420967 -36.935242 -88.850403
4633000000 -45.291958 -148.82668 -1.4859381 -41.053852 -1.4819064 -41.101543 -37.160767 -89.258209
4634000000 -45.755173 -149.78476 -1.4843799 -43.72654 -1.4843606 -43.71936 -37.449196 -89.394226
4635000000 -46.523266 -156.73395 -1.4874134 -46.340191 -1.4787033 -46.408447 -37.483421 -92.967323
4636000000 -47.047596 -157.75258 -1.481436 -49.017834 -1.480595 -49.030499 -38.151974 -96.052704
4637000000 -47.549561 -160.89403 -1.485109 -51.651337 -1.4831942 -51.7001 -38.509834 -96.497475
4638000000 -48.222271 -163.19482 -1.4811134 -54.339001 -1.4857512 -54.291756 -38.775646 -96.517189
4639000000 -47.397217 -171.68147 -1.4811265 -56.947376 -1.4854654 -56.998367 -39.37524 -94.268051
4640000000 -50.526569 -173.33633 -1.4912096 -59.632034 -1.4816418 -59.638638 -39.790211 -101.1382
4641000000 -50.852505 176.71327 -1.4842521 -62.26096 -1.4847691 -62.273991 -39.375687 -101.11868
4642000000 -52.004341 -171.11771 -1.4863898 -64.892838 -1.4816654 -64.938828 -41.043602 -99.057892
4643000000 -55.48769 171.94337 -1.4872442 -67.563972 -1.4770885 -67.567375 -41.169571 -102.68339
4644000000 -58.874531 169.79391 -1.4876492 -70.203392 -1.4817168 -70.250809 -41.682774 -102.25063
4645000000 -59.315567 167.92668 -1.4872526 -72.834045 -1.4815161 -72.938156 -42.864735 -99.735161
4646000000 -63.362373 -179.50137 -1.4823231 -75.525536 -1.4865515 -75.523163 -43.533154 -98.034546
4647000000 -65.541397 -173.34032 -1.4850343 -78.145912 -1.4831957 -78.197044 -43.852779 -98.752296
4648000000 -65.637749 -20.623075 -1.4870232 -80.822182 -1.485574 -80.84182 -44.186367 -94.927979
4649000000 -65.24453 -24.667969 -1.4854946 -83.479965 -1.484 -83.480522 -45.80769 -93.704536
4650000000 -58.259834 -66.281136 -1.4851589 -86.108971 -1.4826591 -86.142418 -46.207233 -83.175644
4651000000 -53.044952 -50.722698 -1.4883902 -88.72094 -1.4821405 -88.798141 -46.577953 -81.178635
4652000000 -54.091022 -41.503178 -1.4881955 -91.421455 -1.4857005 -91.408585 -46.587875 -71.514954
4653000000 -51.498341 -63.457115 -1.4846212 -94.059212 -1.4897912 -94.111397 -47.705803 -57.388386
4654000000 -49.757053 -50.348289 -1.4878983 -96.746735 -1.4832124 -96.741745 -46.860947 -45.418114
4655000000 -48.45821 -64.736267 -1.490002 -99.346672 -1.4839497 -99.420486 -47.050877 -39.808853
4656000000 -48.990391 -59.790157 -1.4912151 -102.03443 -1.4831672 -102.03665 -45.290863 -34.078365
4657000000 -47.214962 -62.938015 -1.4920502 -104.63786 -1.4873543 -104.70171 -45.677071 -21.467176
4658000000 -46.12627 -67.655342 -1.4851367 -107.30454 -1.4891459 -107.35891 -44.684357 -26.417862
4659000000 -45.309315 -66.399124 -1.4881874 -109.95271 -1.4847465 -109.97034 -43.373291 -16.253897
4660000000 -44.584129 -66.977379 -1.4854792 -112.61147 -1.4873277 -112.62997 -42.986958 -14.570354
4661000000 -43.407551 -74.079735 -1.4914134 -115.29325 -1.4898345 -115.2881 -41.9538 -13.682244
4662000000 -44.089729 -79.891251 -1.4911397 -117.88947 -1.4853182 -117.94214 -41.254944 -12.214231
4663000000 -43.142544 -76.850983 -1.487499 -120.55927 -1.4892381 -120.60638 -40.553833 -14.169272
4664000000 -42.304291 -84.372696 -1.4907171 -123.23111 -1.4874731 -123.21219 -39.714851 -10.054983
4665000000 -42.390221 -82.949684 -1.4911149 -125.88708 -1.4875745 -125.89438 -39.237759 -11.838631
4666000000 -41.683392 -85.786728 -1.494746 -128.53165 -1.4806795 -128.54051 -38.337498 -11.626245
4667000000 -41.344479 -89.233521 -1.4887735 -131.14729 -1.4848065 -131.21101 -37.911846 -10.136256
4668000000 -40.957077 -94.861694 -1.4912174 -133.83066 -1.4889165 -133.88545 -37.962284 -11.179156
4669000000 -40.941074 -95.374443 -1.4926192 -136.46072 -1.4848258 -136.47818 -37.01268 -10.625092
4670000000 -40.48597 -103.11309 -1.4910046 -139.1161 -1.4855233 -139.15648 -36.814281 -12.330648
4671000000 -39.937302 -104.07441 -1.4887444 -141.76512 -1.4872661 -141.79623 -36.343277 -13.320656
4672000000 -39.611397 -108.14919 -1.4896982 -144.38919 -1.4930642 -144.44806 -35.972042 -14.229372
4673000000 -39.130157 -111.25546 -1.4897389 -147.06085 -1.4885999 -147.1125 -35.750683 -15.792416
4674000000 -39.719868 -119.32663 -1.4892688 -149.68889 -1.4917644 -149.79187 -35.621231 -14.999308
4675000000 -38.973316 -119.72826 -1.4882129 -152.3605 -1.4911813 -152.38544 -35.034729 -16.899988
4676000000 -38.712639 -124.62721 -1.4939803 -155.01065 -1.4940028 -155.03017 -34.706295 -17.099369
4677000000 -39.026474 -129.78741 -1.4973624 -157.68486 -1.48702 -157.70036 -34.632236 -20.772371
4678000000 -38.270111 -131.13472 -1.4934187 -160.29977 -1.4860541 -160.33644 -34.231342 -22.608559
4679000000 -38.203419 -135.40874 -1.4960244 -162.9601 -1.4869223 -163.02634 -34.338177 -22.311304
4680000000 -37.824104 -140.2498 -1.4942913 -165.61401 -1.4894953 -165.64148 -34.016464 -25.053492
4681000000 -38.267292 -144.48055 -1.4990016 -168.28067 -1.4863499 -168.25081 -33.600388 -26.632915
4682000000 -37.887676 -146.89322 -1.4938232 -170.95099 -1.4945178 -170.93877 -33.651562 -28.488142
4683000000 -37.622478 -151.61516 -1.4918542 -173.55721 -1.4918009 -173.60959 -33.470932 -29.486141
4684000000 -37.796028 -157.19356 -1.4961694 -176.22107 -1.4881277 -176.23424 -33.194214 -30.422838
4685000000 -37.561882 -158.3978 -1.4955506 -178.84331 -1.4909306 -178.88391 -33.185474 -32.167736
4686000000 -37.607704 -162.89334 -1.4962666 178.481 -1.4944904 178.47121 -32.957176 -34.596947
4687000000 -37.346798 -166.19154 -1.4920495 175.85602 -1.4937479 175.8262 -32.795227 -34.509247
4688000000 -37.387367 -170.51373 -1.4980454 173.20599 -1.4966642 173.14888 -32.678207 -36.060081
4689000000 -36.84885 -176.48706 -1.4941416 170.5452 -1.491136 170.51163 -32.611668 -39.177315
4690000000 -36.549316 -175.69028 -1.4976548 167.87141 -1.4894979 167.8542 -32.68227 -40.61652
4691000000 -36.895096 179.89592 -1.4953947 165.23691 -1.4955115 165.22842 -32.543407 -43.856228
4692000000 -36.774914 174.35028 -1.4976569 162.58118 -1.4927886 162.57152 -32.572945 -42.954765
4693000000 -36.840538 169.36368 -1.4957556 159.93152 -1.497339 159.90874 -32.167332 -45.488014
4694000000 -36.862762 167.2746 -1.4994992 157.28229 -1.4971113 157.26318 -32.426155 -47.180958
4695000000 -36.702747 162.79683 -1.4925597 154.63728 -1.4956003 154.6156 -32.399502 -49.824097
4696000000 -36.533092 159.09749 -1.4964529 151.9839 -1.4931529 151.9904 -32.38686 -50.560158
4697000000 -36.460278 156.60477 -1.4937268 149.36446 -1.4979672 149.32196 -32.432064 -51.450722
4698000000 -36.678368 149.68044 -1.4969747 146.68082 -1.4963813 146.64063 -32.458374 -52.694588
4699000000 -36.402054 152.65334 -1.4947428 144.0451 -1.4894071 144.03102 -32.497692 -52.335316
4700000000 -36.767361 144.90201 -1.4980973 141.40509 -1.4941865 141.36951 -32.697155 -55.537941
4701000000 -36.858212 139.68036 -1.4999446 138.72502 -1.4930748 138.73135 -32.563423 -57.015816
4702000000 -36.947945 132.8129 -1.4980667 136.10078 -1.4990251 136.06113 -32.729557 -57.960766
4703000000 -37.512684 131.3074 -1.500443 133.44209 -1.495815 133.42329 -32.756042 -58.634491
4704000000 -37.346886 125.63719 -1.5003544 130.78258 -1.4926473 130.7812 -32.783169 -58.860775
4705000000 -37.415333 123.0316 -1.4990623 128.16083 -1.4936947 128.1393 -32.886646 -61.324753
4706000000 -37.829567 121.13861 -1.5026003 125.50705 -1.494815 125.48296 -33.210991 -60.037651
4707000000 -37.861465 115.11049 -1.4994104 122.85912 -1.4953889 122.82609 -33.34631 -60.927761
4708000000 -38.265873 109.464 -1.4971058 120.22495 -1.4911981 120.20966 -33.611073 -61.870449
4709000000 -37.976139 102.40661 -1.495677 117.53725 -1.4924874 117.51347 -33.436832 -61.407433
4710000000 -38.185349 98.673676 -1.4982549 114.91862 -1.4973043 114.88806 -33.832947 -63.170513
4711000000 -38.323997 93.837288 -1.4968183 112.26946 -1.4921017 112.22865 -34.023342 -61.713833
4712000000 -38.653072 88.708946 -1.4959459 109.62503 -1.502165 109.58524 -33.994179 -62.175781
4713000000 -39.045918 84.866898 -1.4977413 106.94946 -1.4996268 106.91959 -34.44738 -61.790966
4714000000 -39.176048 77.893044 -1.5012776 104.3046 -1.4936688 104.24384 -34.813213 -61.276508
4715000000 -39.304749 71.399483 -1.5023468 101.66571 -1.496845 101.59843 -34.707554 -60.902878
4716000000 -40.019905 63.876328 -1.4960167 98.973526 -1.4980228 98.987373 -35.0243 -59.700726
4717000000 -39.71629 61.310284 -1.5018603 96.34301 -1.4943184 96.330917 -35.074017 -59.810852
4718000000 -39.752808 54.352379 -1.4998875 93.711792 -1.499308 93.638763 -35.324409 -59.138073
4719000000 -39.812443 51.300751 -1.4975513 91.062607 -1.4945787 91.045914 -35.84103 -57.313339
4720000000 -39.737259 42.718792 -1.4998645 88.410156 -1.49762 88.348694 -35.822857 -57.049007
4721000000 -39.932877 35.507526 -1.497498 85.750778 -1.4972447 85.717201 -36.160965 -54.789864
4722000000 -40.153431 29.542265 -1.4952204 83.08374 -1.4931314 83.08429 -36.409927 -55.140781
4723000000 -39.923092 25.193695 -1.4972861 80.448067 -1.5033042 80.429298 -36.510117 -54.029144
4724000000 -39.933174 19.454988 -1.4982045 77.811363 -1.4944009 77.785782 -36.524792 -50.963753
4725000000 -39.942307 16.110409 -1.5002313 75.161499 -1.4955444 75.116051 -36.376999 -50.839424
4726000000 -40.16003 6.6709423 -1.4966927 72.500435 -1.500108 72.448875 -36.937599 -48.026405
4727000000 -39.770081 3.4762392 -1.4979775 69.850372 -1.5050666 69.854774 -36.878574 -46.15649
4728000000 -39.865128 -3.6850297 -1.5019963 67.174553 -1.5018005 67.155807 -36.909855 -46.463875
4729000000 -39.716087 -10.472493 -1.4988652 64.539368 -1.4983444 64.516022 -36.989792 -44.142197
4730000000 -40.336498 -14.098403 -1.5012457 61.900761 -1.4986832 61.877895 -36.498695 -43.177166
4731000000 -40.023483 -24.48954 -1.5041159 59.249973 -1.4951233 59.248806 -36.655781 -42.50629
4732000000 -39.771576 -25.034231 -1.49713 56.602043 -1.5019945 56.569572 -36.663601 -42.436886
4733000000 -39.655579 -32.159298 -1.501528 53.95536 -1.4980042 53.886303 -36.998802 -39.910698
4734000000 -39.42992 -33.8815 -1.5023121 51.283298 -1.4998257 51.294479 -36.842484 -37.687233
4735000000 -40.067665 -41.127953 -1.5033065 48.632992 -1.4996253 48.628181 -36.522991 -39.115932
4736000000 -39.780022 -44.99519 -1.5036414 45.999897 -1.4976548 45.982464 -36.187695 -39.183292
4737000000 -39.319698 -48.747429 -1.5029596 43.344982 -1.4996421 43.341377 -35.642712 -38.4338
4738000000 -39.779202 -59.195278 -1.5064604 40.708542 -1.5027624 40.656521 -35.915157 -39.110306
4739000000 -39.584641 -57.961178 -1.503144 38.051762 -1.4985286 38.032459 -35.250622 -36.929611
4740000000 -39.212929 -66.549782 -1.5033621 35.427193 -1.4983145 35.377247 -35.254444 -37.93885
4741000000 -39.418781 -70.002426 -1.5008137 32.762775 -1.4984936 32.700092 -35.114006 -38.473541
4742000000 -39.41201 -77.019165 -1.508157 30.102751 -1.5006061 30.073128 -34.916378 -38.256695
4743000000 -39.424385 -83.902718 -1.5039784 27.429768 -1.5001537 27.445707 -34.656509 -44.212448
4744000000 -38.407761 -87.211861 -1.502896 24.807388 -1.5011766 24.747042 -34.239433 -42.712791
4745000000 -38.361515 -91.352303 -1.5044172 22.129332 -1.4988332 22.131926 -34.089447 -44.071735
4746000000 -38.415501 -97.359802 -1.5032395 19.497278 -1.5056834 19.473188 -33.945175 -45.121857
4747000000 -38.425953 -101.34483 -1.5046031 16.855827 -1.5052412 16.83577 -33.724094 -45.118469
4748000000 -37.896801 -106.29835 -1.503373 14.206696 -1.5027342 14.176135 -33.602791 -48.319992
4749000000 -38.241566 -114.63874 -1.5052745 11.543355 -1.5017471 11.506695 -33.613655 -50.228889
4750000000 -37.556511 -116.31643 -1.5003358 8.898983 -1.5042613 8.8626213 -33.064995 -51.348621
4751000000 -37.797272 -120.35278 -1.5064666 6.2537541 -1.5017805 6.2366562 -33.130852 -50.440281
4752000000 -37.60659 -125.62814 -1.5036831 3.6056979 -1.5032692 3.5862277 -32.652466 -52.292213
4753000000 -37.601334 -127.865 -1.5040882 0.95296586 -1.5038719 0.93200463 -32.692272 -54.419476
4754000000 -37.170399 -131.25557 -1.5058237 -1.7082671 -1.5026764 -1.7212493 -32.525063 -56.079651
4755000000 -37.02317 -136.87367 -1.5027239 -4.3650575 -1.5009165 -4.3557625 -32.310791 -58.590115
4756000000 -36.937988 -140.79411 -1.5041332 -6.992631 -1.5066319 -7.0302377 -32.208515 -58.810192
4757000000 -37.008816 -141.16501 -1.5072658 -9.653615 -1.5077991 -9.6530952 -31.942787 -60.554306
4758000000 -36.398232 -147.11617 -1.5085182 -12.2988 -1.5037895 -12.3185 -31.842516 -61.54174
4759000000 -36.875278 -150.28987 -1.5049454 -14.931193 -1.5049063 -14.946814 -31.9091 -63.370598
4760000000 -36.561588 -156.90271 -1.5064861 -17.602709 -1.5071688 -17.626953 -31.855545 -63.801113
4761000000 -36.878296 -158.05476 -1.5094554 -20.23197 -1.5066893 -20.229675 -31.724598 -65.298149
4762000000 -36.506535 -158.72533 -1.5045003 -22.885618 -1.5054232 -22.914175 -31.717596 -67.533371
4763000000 -36.662334 -166.30173 -1.5017464 -25.552902 -1.5029662 -25.557476 -31.737553 -67.379486
4764000000 -37.339481 -169.96217 -1.5112522 -28.18689 -1.5050414 -28.226189 -31.67189 -67.654861
4765000000 -37.167908 -175.01649 -1.5096093 -30.839855 -1.5038843 -30.849184 -31.524515 -69.7612
4766000000 -37.432762 -176.07054 -1.5046892 -33.478424 -1.5064876 -33.507469 -31.806469 -70.829475
4767000000 -37.618248 178.40338 -1.5071402 -36.166981 -1.5087612 -36.152782 -31.701799 -70.966599
4768000000 -37.823799 173.86217 -1.5081687 -38.768444 -1.5038576 -38.829865 -31.873224 -72.963272
4769000000 -37.840393 168.08504 -1.5087739 -41.417923 -1.5021174 -41.483479 -32.067924 -73.320023
4770000000 -38.216442 166.59712 -1.5085036 -44.074368 -1.50679 -44.114697 -32.017147 -74.65274
4771000000 -38.756397 161.49162 -1.510463 -46.737473 -1.5071812 -46.74992 -32.285275 -74.789879
4772000000 -38.329277 158.25035 -1.5073977 -49.374489 -1.5093925 -49.385738 -32.383713 -75.988312
4773000000 -39.063461 153.21904 -1.5084797 -52.033745 -1.5065081 -52.082119 -32.411037 -76.326942
4774000000 -39.592335 147.36823 -1.5077665 -54.675583 -1.5100616 -54.713238 -32.694466 -76.158081
4775000000 -39.704056 140.41336 -1.508426 -57.345074 -1.505123 -57.350224 -32.93243 -77.088501
4776000000 -39.411331 137.41158 -1.5091558 -60.000515 -1.5097106 -59.97723 -33.110832 -77.815849
4777000000 -40.479401 129.83342 -1.5095849 -62.627926 -1.5093602 -62.683563 -33.486801 -75.373573
4778000000 -41.318233 124.8178 -1.5126528 -65.272667 -1.5057288 -65.306046 -33.757206 -77.980812
4779000000 -40.95071 119.84307 -1.509111 -67.946526 -1.5064268 -67.939232 -34.055645 -78.493393
4780000000 -42.134434 110.60007 -1.510269 -70.599785 -1.5084804 -70.606354 -34.359852 -79.290253
4781000000 -41.930584 102.73528 -1.5091466 -73.250153 -1.5091913 -73.253349 -35.154819 -79.194031
4782000000 -42.02755 95.76149 -1.5121061 -75.896561 -1.5031044 -75.895355 -35.128601 -78.419945
4783000000 -42.140167 91.366409 -1.5078651 -78.536308 -1.5076914 -78.570549 -35.476864 -79.907761
4784000000 -42.834042 80.03363 -1.5094123 -81.197357 -1.5105513 -81.229164 -36.070087 -78.401756
4785000000 -42.14146 76.072548 -1.5111059 -83.843124 -1.5071009 -83.8423 -36.144958 -76.191269
4786000000 -42.976475 68.84166 -1.5073904 -86.501144 -1.5127441 -86.490395 -36.369717 -74.608307
4787000000 -42.757088 61.276817 -1.5119932 -89.130699 -1.5103621 -89.187805 -36.636124 -71.993362
4788000000 -43.191025 56.195702 -1.5056274 -91.813873 -1.5121804 -91.772903 -37.650311 -73.637489
4789000000 -43.530712 43.271679 -1.5105348 -94.422745 -1.5084555 -94.473846 -38.300556 -71.495567
4790000000 -42.718964 40.015774 -1.5089029 -97.058121 -1.5054228 -97.093246 -38.129276 -70.322052
4791000000 -43.57056 27.215914 -1.5092745 -99.741318 -1.5068641 -99.768913 -38.704826 -68.877953
4792000000 -43.443581 25.208834 -1.5065092 -102.3654 -1.5152602 -102.40191 -39.218624 -63.79586
4793000000 -43.92429 17.240704 -1.511276 -105.05389 -1.5085424 -105.04807 -39.377094 -62.33252
4794000000 -44.159885 9.9586191 -1.5099971 -107.67654 -1.5082157 -107.71233 -39.347385 -57.194237
4795000000 -43.583687 -0.68063879 -1.509915 -110.3395 -1.5087318 -110.36008 -39.539806 -56.188915
4796000000 -43.606701 -5.3237023 -1.511896 -112.98741 -1.5105007 -112.98978 -39.173069 -53.307812
4797000000 -43.039093 -14.137895 -1.5093148 -115.67618 -1.5125347 -115.6347 -39.165607 -48.615383
4798000000 -43.425892 -20.300631 -1.5123998 -118.30338 -1.512787 -118.33542 -39.853397 -45.234528
4799000000 -42.597897 -26.445009 -1.5123631 -120.96788 -1.5123044 -120.98295 -39.309395 -44.534401
4800000000 -42.209923 -35.765366 -1.5156051 -123.60201 -1.5063199 -123.61414 -38.651657 -40.655315
4801000000 -42.278194 -40.989887 -1.5162562 -126.2327 -1.5123194 -126.26708 -38.863464 -42.745319
4802000000 -41.788498 -48.277386 -1.5145866 -128.91666 -1.513883 -128.91966 -38.266109 -39.08659
4803000000 -41.408108 -58.453571 -1.5129176 -131.54868 -1.5096791 -131.563 -37.604527 -35.837017
4804000000 -41.568256 -61.542568 -1.5130284 -134.18742 -1.5094687 -134.21982 -37.359367 -35.852703
4805000000 -40.878117 -66.764954 -1.5139809 -136.84715 -1.5074749 -136.8678 -37.157604 -33.456451
4806000000 -40.922562 -74.931908 -1.5169543 -139.49596 -1.5131538 -139.48665 -36.795052 -34.800079
4807000000 -40.288486 -80.989319 -1.5156257 -142.15596 -1.5126128 -142.17458 -36.439884 -36.890255
4808000000 -40.125061 -83.850746 -1.5161189 -144.80923 -1.5094994 -144.81943 -35.973644 -36.71162
4809000000 -39.555141 -91.914497 -1.5155336 -147.4595 -1.5081464 -147.44789 -35.429249 -35.900627
4810000000 -39.29356 -94.507065 -1.5160158 -150.1185 -1.51161 -150.0997 -35.110126 -37.199711
4811000000 -38.921032 -99.362564 -1.5194045 -152.75899 -1.5108068 -152.76074 -34.624481 -36.342129
4812000000 -38.544765 -107.40276 -1.5179102 -155.41734 -1.5156022 -155.40068 -34.270256 -37.47805
4813000000 -38.383728 -107.51241 -1.5194391 -158.03221 -1.5142413 -158.07239 -34.102749 -38.602688
4814000000 -38.128174 -113.10908 -1.5177476 -160.69348 -1.5117918 -160.71144 -33.800247 -40.1991
4815000000 -37.77343 -117.967 -1.5157248 -163.33807 -1.5158803 -163.37166 -33.772606 -40.410797
4816000000 -37.320866 -119.12325 -1.5165532 -165.98848 -1.5165682 -165.99228 -33.016647 -40.482864
4817000000 -37.198215 -125.24578 -1.5172054 -168.63918 -1.513467 -168.67693 -33.240299 -43.180378
4818000000 -36.850204 -126.07573 -1.5145965 -171.30298 -1.5161245 -171.29785 -32.570156 -43.239017
4819000000 -36.696014 -134.05753 -1.5177568 -173.92084 -1.515735 -173.96706 -32.477894 -44.398243
4820000000 -36.385826 -135.16621 -1.5188022 -176.59956 -1.521044 -176.58276 -32.047527 -44.495098
4821000000 -36.232189 -139.58165 -1.5164838 -179.23947 -1.5128648 -179.24628 -31.972136 -46.276398
4822000000 -35.990665 -142.29076 -1.5178795 178.11075 -1.5158235 178.06178 -31.702698 -48.340931
4823000000 -35.845528 -147.23119 -1.520066 175.42444 -1.5193887 175.45294 -31.57408 -47.689388
4824000000 -35.829872 -150.61884 -1.5178232 172.79378 -1.5213821 172.79848 -31.392498 -51.128811
4825000000 -36.032791 -151.82086 -1.5202024 170.17181 -1.5186285 170.10747 -31.321856 -51.338787
4826000000 -35.422249 -157.41502 -1.5178108 167.50365 -1.5198985 167.49861 -31.171019 -54.422352
4827000000 -35.557789 -160.2365 -1.5187134 164.87012 -1.5177341 164.84509 -30.974554 -54.289562
4828000000 -35.260391 -163.0497 -1.5198636 162.20552 -1.5152569 162.17738 -30.855362 -56.366688
4829000000 -35.645458 -169.10442 -1.5217094 159.6031 -1.5191933 159.53836 -30.87093 -57.399532
4830000000 -35.375351 -172.22383 -1.518608 156.90471 -1.5164734 156.86702 -30.821039 -58.543137
4831000000 -35.285885 -174.2617 -1.5158613 154.28136 -1.5161303 154.25471 -30.672565 -60.351025
4832000000 -35.368439 -179.7282 -1.5234896 151.58781 -1.5156381 151.57753 -30.62145 -61.125145
4833000000 -35.220695 177.11829 -1.5169172 148.95969 -1.5173882 148.95229 -30.588202 -62.561405
4834000000 -35.207733 172.21144 -1.5200822 146.28719 -1.5217106 146.31421 -30.774437 -64.189857
4835000000 -35.724976 167.81169 -1.5176276 143.67924 -1.5217006 143.65439 -30.614695 -64.926956
4836000000 -35.623047 164.97131 -1.5232183 141.01134 -1.5171012 141.00201 -30.596243 -66.355438
4837000000 -35.353195 159.12183 -1.5201128 138.32901 -1.5192873 138.34331 -30.922979 -67.573441
4838000000 -35.74033 155.59123 -1.5234469 135.72824 -1.5195886 135.68747 -30.654554 -69.597282
4839000000 -35.878304 151.85466 -1.5224332 133.09644 -1.5201502 133.04692 -30.646996 -70.297577
4840000000 -35.689941 147.45439 -1.5275987 130.37119 -1.5162055 130.39799 -30.915649 -71.368118
4841000000 -35.516689 143.19469 -1.5184119 127.74374 -1.5196921 127.75642 -31.056274 -73.172386
4842000000 -35.876213 139.00488 -1.5173317 125.12153 -1.5212674 125.1102 -31.121294 -75.1959
4843000000 -35.855606 135.9393 -1.520753 122.47646 -1.5181273 122.42921 -31.217375 -76.351219
4844000000 -35.591942 127.38781 -1.5182158 119.79902 -1.5181317 119.80439 -31.258068 -77.937088
4845000000 -35.949715 127.14049 -1.519511 117.17365 -1.5187042 117.15816 -31.463993 -78.162666
4846000000 -35.722382 122.90017 -1.5177307 114.51586 -1.5203644 114.51454 -31.497192 -80.123413
4847000000 -35.884026 118.23788 -1.5257614 111.86552 -1.5181956 111.85774 -31.792133 -81.315689
4848000000 -35.990379 112.85942 -1.5214571 109.23208 -1.5158561 109.20145 -31.869923 -83.593384
4849000000 -36.068638 107.39063 -1.519928 106.58148 -1.5227054 106.5688 -32.150646 -83.981354
4850000000 -36.31023 106.001 -1.5216662 103.94956 -1.5194247 103.90156 -32.341377 -85.245499
4851000000 -36.189381 99.32682 -1.5217749 101.26399 -1.5240043 101.26202 -32.512409 -87.154572
4852000000 -35.875027 98.100052 -1.5230168 98.657913 -1.5153563 98.617752 -32.536057 -88.848312
4853000000 -36.217457 93.843636 -1.5186971 95.95565 -1.5169741 95.977768 -32.89003 -88.647057
4854000000 -36.26371 88.980446 -1.5218815 93.327637 -1.5172385 93.306244 -32.963207 -89.944809
4855000000 -36.46965 86.786171 -1.5227631 90.68866 -1.5171455 90.660294 -33.411118 -92.225235
4856000000 -36.585796 81.260162 -1.5268135 88.024979 -1.5144241 87.995247 -33.449791 -91.619843
4857000000 -36.560272 76.57415 -1.520767 85.384781 -1.5237767 85.400902 -33.435692 -93.91407
4858000000 -36.99987 71.270798 -1.5214449 82.722458 -1.5188323 82.703125 -33.906689 -93.673157
4859000000 -37.038559 68.21479 -1.5218652 80.07505 -1.5222592 80.060966 -34.129326 -94.115753
4860000000 -37.521633 64.136047 -1.5233834 77.426201 -1.5215139 77.418785 -34.526073 -96.10759
4861000000 -37.37162 62.104656 -1.5272156 74.786697 -1.5188313 74.788094 -34.791969 -95.75605
4862000000 -37.591061 57.384014 -1.5171407 72.146996 -1.5225059 72.1157 -34.630745 -95.082214
4863000000 -37.872494 54.93718 -1.5240176 69.49099 -1.5190138 69.479599 -35.188461 -94.507881
4864000000 -37.995476 48.81855 -1.5191875 66.831863 -1.518886 66.807495 -35.187607 -93.763
4865000000 -39.038273 43.734959 -1.5251472 64.185806 -1.5209863 64.146439 -35.66151 -95.419449
4866000000 -38.693668 40.242783 -1.5174646 61.54351 -1.5190759 61.517799 -35.674072 -90.071648
4867000000 -39.163372 36.571754 -1.526996 58.923325 -1.5177194 58.858479 -36.082561 -89.965218
4868000000 -39.068085 30.611784 -1.519658 56.232204 -1.5216621 56.193871 -35.910831 -88.846176
4869000000 -39.28553 23.27384 -1.5215919 53.57637 -1.5180883 53.560402 -36.259548 -91.000793
4870000000 -39.613594 19.460718 -1.5238922 50.919495 -1.5202559 50.905251 -36.438019 -89.996979
4871000000 -39.863987 10.85446 -1.5219083 48.27483 -1.5218943 48.250668 -36.5154 -88.727554
4872000000 -39.840912 6.1566973 -1.526589 45.637314 -1.5181586 45.605526 -36.298122 -85.228989
4873000000 -40.946266 0.35144854 -1.5209397 42.996422 -1.5215144 42.984768 -36.648548 -84.728912
4874000000 -40.837315 -6.8381238 -1.5270489 40.340424 -1.5210837 40.297405 -36.448975 -82.080788
4875000000 -40.94743 -11.397438 -1.5252107 37.694939 -1.519659 37.690151 -36.469635 -79.522232
4876000000 -40.500484 -17.921627 -1.5268209 35.044174 -1.5214114 35.006535 -36.604935 -79.059799
4877000000 -41.623913 -25.190632 -1.5275961 32.362717 -1.5192227 32.352978 -36.437939 -77.287979
4878000000 -41.489994 -32.078217 -1.5263562 29.737938 -1.52591 29.698408 -36.747211 -75.354668
4879000000 -41.678143 -36.395157 -1.5217907 27.081039 -1.5257275 27.074482 -36.552578 -72.8507
4880000000 -41.565979 -44.076237 -1.5244389 24.438993 -1.5247287 24.374611 -36.262611 -70.315224
4881000000 -41.375187 -46.85577 -1.5267484 21.793205 -1.5225482 21.77099 -36.037849 -68.356262
4882000000 -41.787827 -55.343338 -1.526336 19.12216 -1.525209 19.121277 -35.93935 -67.194633
4883000000 -41.830799 -61.999214 -1.5261642 16.467144 -1.5222486 16.471968 -35.885494 -64.513382
4884000000 -41.191788 -66.381104 -1.526109 13.840309 -1.5211653 13.807256 -35.679371 -67.499329
4885000000 -41.531418 -73.867867 -1.5269154 11.195068 -1.5228062 11.147935 -35.475307 -64.425217
4886000000 -41.693737 -77.476082 -1.5271468 8.5213242 -1.527269 8.5137844 -35.443207 -64.666046
4887000000 -41.042931 -86.551094 -1.5197796 5.877501 -1.5260649 5.851265 -34.912628 -65.295868
4888000000 -41.406952 -91.734299 -1.5254716 3.2078531 -1.5270497 3.2223139 -34.615372 -63.887726
4889000000 -42.187393 -95.276161 -1.5317205 0.59510559 -1.5283237 0.55264103 -34.873066 -63.767937
4890000000 -41.274551 -104.87936 -1.5256628 -2.0826645 -1.5238807 -2.0830224 -34.236927 -64.052124
4891000000 -42.033779 -110.59676 -1.5272517 -4.7011547 -1.525758 -4.746233 -34.305565 -63.510899
4892000000 -41.476631 -115.29327 -1.5260388 -7.3659425 -1.5250424 -7.4100013 -34.570831 -64.131493
4893000000 -42.441902 -121.38144 -1.5288504 -10.019393 -1.52231 -10.031321 -34.098698 -63.393452
4894000000 -41.844822 -127.75857 -1.530249 -12.664243 -1.5298277 -12.687879 -33.994282 -64.3367
4895000000 -41.601971 -131.84749 -1.5286329 -15.314778 -1.5289513 -15.349018 -33.749474 -66.574425
4896000000 -42.300137 -135.77834 -1.530903 -17.981258 -1.5278777 -17.944923 -33.705891 -65.06559
4897000000 -41.154873 -146.91594 -1.5306227 -20.611177 -1.526176 -20.634125 -33.738483 -68.052727
4898000000 -41.516792 -151.13113 -1.5268691 -23.2735 -1.5260046 -23.289083 -33.50082 -68.418869
4899000000 -41.223064 -158.36002 -1.5350733 -25.922159 -1.5230808 -25.948204 -33.705341 -69.361191
4900000000 -41.720451 -165.50453 -1.5258312 -28.573586 -1.5304828 -28.597683 -33.629105 -70.587906
4901000000 -41.55196 -172.09918 -1.5331974 -31.214825 -1.525921 -31.253201 -33.606083 -71.03743
4902000000 -42.207691 -175.92719 -1.5274074 -33.864002 -1.5294173 -33.893906 -33.621361 -72.444275
4903000000 -41.402927 178.4205 -1.5333983 -36.53014 -1.527673 -36.535183 -33.559139 -73.759743
4904000000 -41.831512 171.98225 -1.5310771 -39.182892 -1.5260848 -39.178947 -33.634773 -72.383926
4905000000 -41.599102 165.08806 -1.5300015 -41.820488 -1.5285445 -41.832592 -33.598701 -74.98732
4906000000 -41.328209 159.7294 -1.5287466 -44.480865 -1.5362991 -44.447704 -33.757103 -75.638115
4907000000 -41.752636 158.17241 -1.5314996 -47.091763 -1.5255488 -47.133656 -33.613323 -78.448669
4908000000 -41.342773 146.47142 -1.5335228 -49.744644 -1.524925 -49.780228 -33.713688 -77.359428
4909000000 -41.264423 142.79544 -1.5316734 -52.398899 -1.5285769 -52.448318 -34.000927 -79.276108
4910000000 -41.108673 138.5972 -1.5343218 -55.075436 -1.5267255 -55.062908 -33.704109 -81.462479
4911000000 -41.536392 133.2961 -1.5309277 -57.720947 -1.5251391 -57.744926 -33.97649 -83.182877
4912000000 -40.48106 128.25044 -1.5320145 -60.346142 -1.5245937 -60.411808 -34.068768 -83.927948
4913000000 -41.078346 122.98773 -1.5322156 -63.013107 -1.525658 -63.049374 -34.410252 -86.345741
4914000000 -40.888969 119.79848 -1.5285389 -65.647964 -1.530731 -65.713814 -34.367966 -87.117073
4915000000 -40.804127 114.58525 -1.5325273 -68.332802 -1.5321456 -68.316185 -34.349545 -87.734192
4916000000 -41.190277 110.92318 -1.5313895 -70.967247 -1.5285317 -70.992767 -34.854321 -89.513397
4917000000 -40.919121 102.52303 -1.5323313 -73.616432 -1.5254726 -73.640678 -34.813141 -89.569939
4918000000 -40.920437 104.87196 -1.5340207 -76.258163 -1.5293256 -76.292473 -34.713837 -89.302994
4919000000 -40.865902 93.080231 -1.5331949 -78.953438 -1.5342388 -78.953148 -34.905701 -90.356827
4920000000 -40.069607 93.842628 -1.5307611 -81.561653 -1.5278927 -81.564598 -34.977985 -92.479507
4921000000 -41.04406 86.690247 -1.5341157 -84.225945 -1.5265423 -84.220001 -35.300896 -93.792099
4922000000 -40.921425 83.491066 -1.5309331 -86.849777 -1.5289226 -86.852631 -35.783325 -91.573296
4923000000 -40.988956 78.79715 -1.5358058 -89.515678 -1.5338099 -89.543388 -35.511761 -93.336136
4924000000 -41.157681 69.430283 -1.53407 -92.196487 -1.5318516 -92.186493 -36.071709 -94.723259
4925000000 -41.210869 69.985893 -1.532322 -94.812798 -1.5292498 -94.825317 -36.036194 -94.45459
4926000000 -41.297192 60.134804 -1.5354482 -97.445724 -1.5364705 -97.490158 -36.419701 -96.598404
4927000000 -41.351673 60.001129 -1.5304235 -100.10559 -1.5345204 -100.1108 -36.804428 -95.655334
4928000000 -41.310329 52.221764 -1.5336404 -102.796 -1.5330446 -102.77605 -36.540081 -93.053726
4929000000 -41.830719 48.596855 -1.5327723 -105.39382 -1.530974 -105.42641 -37.063206 -90.607155
4930000000 -41.415226 44.036518 -1.53438 -108.092 -1.5291018 -108.06747 -36.831467 -88.798157
4931000000 -41.297867 34.124195 -1.531859 -110.7235 -1.5346062 -110.71681 -37.431351 -92.062309
4932000000 -42.195824 30.309343 -1.5341142 -113.3537 -1.5306989 -113.37775 -37.452278 -88.257324
4933000000 -42.60154 28.303356 -1.5327561 -116.01483 -1.5320922 -116.02869 -37.929256 -88.878769
4934000000 -41.388695 23.751434 -1.5321928 -118.66025 -1.5303915 -118.66721 -38.091331 -85.208145
4935000000 -42.224602 11.856497 -1.5386957 -121.31458 -1.5343785 -121.31614 -38.380043 -83.60656
4936000000 -41.863384 13.285095 -1.5411077 -123.94862 -1.531069 -124.00156 -38.452412 -83.949532
4937000000 -41.630142 4.8333836 -1.5342009 -126.60079 -1.5314767 -126.61741 -38.533329 -79.736343
4938000000 -41.821976 1.2156637 -1.5404433 -129.26714 -1.5321935 -129.28049 -38.94466 -77.882729
4939000000 -42.088383 -8.9697533 -1.5348201 -131.89778 -1.5304669 -131.93959 -38.563511 -75.053146
4940000000 -42.297802 -9.0159779 -1.5322628 -134.5462 -1.5385525 -134.57672 -38.759205 -76.531898
4941000000 -41.809368 -17.053324 -1.534966 -137.23952 -1.5330758 -137.22592 -38.97237 -69.508987
4942000000 -42.276737 -18.030592 -1.5376775 -139.84979 -1.5307461 -139.89594 -38.774639 -68.008568
4943000000 -41.544891 -25.732828 -1.5338529 -142.51051 -1.5370469 -142.53738 -38.86869 -66.871872
4944000000 -42.000069 -28.125937 -1.5393783 -145.16595 -1.5327785 -145.17607 -38.631287 -65.101166
4945000000 -42.076019 -34.989811 -1.538633 -147.81758 -1.5350597 -147.80026 -38.841545 -63.447506
4946000000 -42.983395 -40.604519 -1.5347968 -150.44191 -1.5380476 -150.49713 -38.056477 -59.077763
4947000000 -42.160404 -49.317974 -1.5386643 -153.1248 -1.5322649 -153.13928 -38.113304 -60.509693
4948000000 -41.528389 -46.745167 -1.5380785 -155.76352 -1.5362773 -155.79364 -37.8843 -56.807308
4949000000 -42.388668 -52.221119 -1.5337641 -158.39302 -1.5332804 -158.43762 -38.030895 -57.371521
4950000000 -42.740807 -53.827351 -1.5326791 -161.04877 -1.5380557 -161.09398 -37.48893 -56.698448
4951000000 -42.592636 -63.451721 -1.5389775 -163.71611 -1.5343637 -163.7318 -37.609135 -58.494205
4952000000 -43.629005 -66.110718 -1.5405078 -166.3671 -1.5346388 -166.37352 -37.865116 -56.622772
4953000000 -42.203667 -70.343468 -1.5382375 -169.01845 -1.5360805 -169.04089 -37.553837 -54.082817
4954000000 -43.544769 -75.05986 -1.5363135 -171.63887 -1.5357951 -171.66667 -36.838779 -53.126408
4955000000 -43.914391 -81.771591 -1.5405879 -174.33443 -1.5340233 -174.31209 -37.032875 -55.062366
4956000000 -44.372593 -85.314789 -1.5431321 -176.967 -1.5402019 -176.963 -36.610077 -52.73
4957000000 -44.111721 -96.43248 -1.5431154 -179.60335 -1.5333087 -179.63083 -36.732838 -55.618649
4958000000 -45.296867 -98.575172 -1.5408566 177.74243 -1.5381777 177.73219 -36.809296 -55.494518
4959000000 -44.6745 -102.27927 -1.5394185 175.09427 -1.529965 175.05962 -36.386345 -55.99197
4960000000 -45.703182 -104.91209 -1.5388772 172.44923 -1.5427997 172.41908 -36.704472 -59.208542
4961000000 -46.85236 -112.94485 -1.538132 169.77893 -1.5365255 169.76134 -36.691029 -56.047325
4962000000 -47.682102 -121.25393 -1.5394059 167.14343 -1.5403428 167.11342 -36.273266 -59.024502
4963000000 -46.177818 -123.91694 -1.5409987 164.49222 -1.5382596 164.45206 -36.565369 -59.477036
4964000000 -48.037846 -129.61142 -1.5391642 161.8278 -1.5327811 161.82451 -36.508331 -60.217003
4965000000 -47.495972 -139.22282 -1.5458431 159.18726 -1.5377119 159.16705 -36.396263 -61.333496
4966000000 -49.415146 -140.20801 -1.5388584 156.54446 -1.5372535 156.51703 -36.490654 -62.338631
4967000000 -49.052219 -145.68251 -1.5378827 153.90842 -1.5391045 153.87573 -36.1866 -64.195213
4968000000 -50.147091 -148.5665 -1.5440964 151.24928 -1.5377101 151.21838 -36.60247 -65.396217
4969000000 -49.861645 -167.16461 -1.5406078 148.59468 -1.5420915 148.54384 -36.563084 -65.919724
4970000000 -51.075348 -169.07166 -1.5424515 145.91107 -1.5385042 145.93451 -36.572777 -68.787651
4971000000 -51.817406 -173.97719 -1.5404727 143.29146 -1.5403805 143.29305 -36.569798 -69.488525
4972000000 -52.962112 172.40854 -1.541617 140.62927 -1.5420191 140.63539 -36.794258 -71.125542
4973000000 -53.413235 179.9234 -1.5404743 138.011 -1.5391281 137.96562 -37.057945 -72.27961
4974000000 -54.732487 148.93553 -1.5419183 135.35321 -1.536479 135.2916 -37.277119 -73.12413
4975000000 -54.553474 126.00731 -1.541798 132.66336 -1.5354482 132.65477 -37.288059 -73.50724
4976000000 -52.833637 90.279999 -1.5421325 130.00517 -1.5374526 130.01222 -37.972584 -74.894287
4977000000 -55.959869 103.08221 -1.5418644 127.37907 -1.5391971 127.3764 -37.607525 -71.508369
4978000000 -54.222546 91.598701 -1.540823 124.74427 -1.5442818 124.71429 -37.490135 -71.796341
4979000000 -53.521351 64.011444 -1.5443357 122.11738 -1.5366176 122.06856 -38.00087 -74.70089
4980000000 -51.733913 56.966873 -1.5404344 119.43384 -1.5406075 119.42046 -38.229622 -73.815659
4981000000 -52.100594 38.371891 -1.5453292 116.79528 -1.5406839 116.77872 -38.28756 -72.067215
4982000000 -49.068233 34.194016 -1.546311 114.14771 -1.5433761 114.09975 -38.295277 -71.384689
4983000000 -49.220261 32.326817 -1.5408684 111.51503 -1.5424304 111.4752 -38.964264 -75.175911
4984000000 -48.804153 22.315645 -1.5440643 108.86086 -1.5421133 108.82539 -39.134132 -70.33123
4985000000 -47.055859 15.728347 -1.5410098 106.18054 -1.5386916 106.19468 -38.887299 -68.196831
4986000000 -45.339447 11.434219 -1.540902 103.53662 -1.5399996 103.53943 -39.332539 -69.517242
4987000000 -45.793545 1.6156483 -1.5464536 100.88869 -1.5383803 100.84348 -39.344669 -65.216393
4988000000 -43.866619 -1.3218222 -1.5447636 98.253014 -1.5389215 98.223213 -39.533791 -64.759682
4989000000 -43.481239 -8.2855644 -1.5417325 95.603569 -1.5454533 95.558578 -39.565266 -59.051926
4990000000 -42.270599 -10.192837 -1.543638 92.939552 -1.5421771 92.94062 -39.461777 -55.80302
4991000000 -41.371075 -14.964371 -1.5491809 90.303635 -1.5387436 90.257851 -39.782295 -53.299324
4992000000 -40.753948 -21.508701 -1.5416998 87.660072 -1.5381925 87.615715 -39.325409 -49.277958
4993000000 -40.159557 -19.915716 -1.5451061 84.979019 -1.5465727 84.97081 -39.313625 -46.788353
4994000000 -39.60725 -26.807924 -1.5425353 82.343651 -1.5445529 82.335686 -38.909344 -43.965523
4995000000 -39.096088 -27.655611 -1.5497478 79.680725 -1.5390816 79.665329 -38.478771 -42.671783
4996000000 -38.503082 -32.744751 -1.5448477 77.049629 -1.545083 77.021164 -38.237831 -38.709503
4997000000 -37.841778 -36.056179 -1.5485801 74.402557 -1.5441595 74.347153 -38.125301 -37.519951
4998000000 -37.384041 -40.083179 -1.544598 71.747177 -1.5419552 71.709671 -37.752316 -35.738403
4999000000 -37.068832 -43.460854 -1.5449297 69.074585 -1.5418341 69.063469 -37.241375 -32.302654
5000000000 -36.588558 -46.489491 -1.5486277 66.437759 -1.5400989 66.413704 -36.378609 -32.602955
